 vasp.6.4.3 19Mar24 (build Aug 29 2024 15:27:20) complex

 executed on             LinuxIFC date 2025.03.19  11:21:37

 INCAR:
   SYSTEM = GaAs
   PREC = Normal
   ENCUT = 400
   ISMEAR = -5
   SIGMA = 0.1
   IBRION = 2
   POTIM = 0.1
   NFREE = 2
   NSW = 100
   ISIF = 3
   PSTRESS = 225

 POTCAR:    PAW_PBE As 22Sep2009
 POTCAR:    PAW_PBE Ga 08Apr2002
|           W    W    AA    RRRRR   N    N  II  N    N   GGGG   !!!           |
|           W    W   A  A   R    R  NN   N  II  NN   N  G    G  !!!           |
|           W    W  A    A  R    R  N N  N  II  N N  N  G       !!!           |
|           W WW W  AAAAAA  RRRRR   N  N N  II  N  N N  G  GGG   !            |
|           WW  WW  A    A  R   R   N   NN  II  N   NN  G    G                |
|           W    W  A    A  R    R  N    N  II  N    N   GGGG   !!!           |
|     For optimal performance we recommend to set                             |
|       NCORE = 2 up to number-of-cores-per-socket                            |
|     This setting can greatly improve the performance of VASP for DFT.       |
|     The default, NCORE=1 might be grossly inefficient on modern             |
|     multi-core architectures or massively parallel machines. Do your        |
|     Unfortunately you need to use the default for GW and RPA                |
|     calculations (for HF NCORE is supported but not extensively tested      |
|     yet).                                                                   |

 POTCAR:    PAW_PBE As 22Sep2009
   VRHFIN =As: s2p3

   TITEL  = PAW_PBE As 22Sep2009
   POMASS =   74.922; ZVAL   =    5.000    mass and valenz
   ENMAX  =  208.702; ENMIN  =  156.526 eV

 POTCAR:    PAW_PBE Ga 08Apr2002
   VRHFIN =Ga: s2p1

   TITEL  = PAW_PBE Ga 08Apr2002
   POMASS =   69.723; ZVAL   =    3.000    mass and valenz
   ENMAX  =  134.678; ENMIN  =  101.009 eV

  PAW_PBE As 22Sep2009                  :
  PAW_PBE Ga 08Apr2002                  :

 POSCAR: cubic gallium arsenide
  positions in direct lattice
  velocities in cartesian coordinates

 exchange-correlation table for PE
   RHO(1)=    0.500       N(1)  =     2000
   RHO(2)=  100.500       N(2)  =     4000

 ion  position               nearest neighbor table
   1  0.000  0.000  0.000-   5 2.38   6 2.38   7 2.38   8 2.38
   2  0.500  0.500  0.000-   5 2.38   6 2.38   7 2.38   8 2.38
   3  0.500  0.000  0.500-   5 2.38   6 2.38   7 2.38   8 2.38
   4  0.000  0.500  0.500-   5 2.38   6 2.38   7 2.38   8 2.38
   5  0.250  0.250  0.250-   1 2.38   2 2.38   3 2.38   4 2.38
   6  0.750  0.250  0.750-   1 2.38   2 2.38   3 2.38   4 2.38
   7  0.750  0.750  0.250-   1 2.38   2 2.38   3 2.38   4 2.38
   8  0.250  0.750  0.750-   1 2.38   2 2.38   3 2.38   4 2.38

  LATTYP: Found a simple cubic cell.
 ALAT       =     5.5026400603

  Lattice vectors:

 A1 = (   5.5026400603,   0.0000000000,   0.0000000000)
 A2 = (   0.0000000000,   5.5026400603,   0.0000000000)
 A3 = (   0.0000000000,   0.0000000000,   5.5026400603)

Analysis of symmetry for initial positions (statically):
 Subroutine PRICEL returns following result:

  LATTYP: Found a face centered cubic cell.
 ALAT       =     5.5026400603

[...]

   4 primitive cells build up your supercell.

 Routine SETGRP: Setting up the symmetry group for a
 simple cubic supercell.

 Subroutine GETGRP returns: Found 24 space group operations
 (whereof 24 operations were pure point group operations)
 out of a pool of 48 trial point group operations.

The static configuration has the point symmetry T_d .

Analysis of symmetry for dynamics (positions and initial velocities):
 Subroutine PRICEL returns following result:

  LATTYP: Found a face centered cubic cell.
 ALAT       =     5.5026400603

  Lattice vectors:

 A1 = (   2.7513200301,  -2.7513200301,   0.0000000000)
 A2 = (   2.7513200301,   0.0000000000,   2.7513200301)
 A3 = (   0.0000000000,  -2.7513200301,   2.7513200301)

   4 primitive cells build up your supercell.

 Routine SETGRP: Setting up the symmetry group for a
 simple cubic supercell.

 Subroutine GETGRP returns: Found 24 space group operations
 (whereof 24 operations were pure point group operations)
 out of a pool of 48 trial point group operations.

The dynamic configuration has the point symmetry T_d .

 Subroutine INISYM returns: Found 24 space group operations
 (whereof 24 operations are pure point group operations),
 and found     4 'primitive' translations

                                     Primitive cell

  volume of cell :      41.6537

  direct lattice vectors                    reciprocal lattice vectors
     2.751320030 -2.751320030  0.000000000     0.181730949 -0.181730949 -0.181730949
     2.751320030  0.000000000  2.751320030     0.181730949  0.181730949  0.181730949
     0.000000000 -2.751320030  2.751320030    -0.181730949 -0.181730949  0.181730949

  length of vectors
     3.890954101  3.890954101  3.890954101     0.314767237  0.314767237  0.314767237

  position of ions in fractional coordinates (direct lattice)
     0.000000000  0.000000000  0.000000000
     0.750000000  0.750000000  0.750000000

  ion indices of the primitive-cell ions
   primitive index   ion index
                 1           1
                 2           5

 KPOINTS: Automatic mesh

Automatic generation of k-mesh.
 Grid dimensions read from file:
 generate k-points for:    5    5    5

 Generating k-lattice:

  Cartesian coordinates                     Fractional coordinates (reciprocal lattice)
     0.036346190  0.000000000  0.000000000     0.200000000  0.000000000  0.000000000
     0.000000000  0.036346190  0.000000000     0.000000000  0.200000000  0.000000000
     0.000000000  0.000000000  0.036346190     0.000000000  0.000000000  0.200000000

  Length of vectors
     0.036346190  0.036346190  0.036346190

  Shift w.r.t. Gamma in fractional coordinates (k-lattice)
     0.000000000  0.000000000  0.000000000

 TETIRR: Found     57 inequivalent tetrahedra from      750

 Subroutine IBZKPT returns following result:

 Found     10 irreducible k-points:

 Following reciprocal coordinates:
            Coordinates               Weight
  0.000000  0.000000  0.000000      1.000000
  0.200000  0.000000  0.000000      6.000000
  0.400000  0.000000  0.000000      6.000000
  0.200000  0.200000  0.000000     12.000000
  0.400000  0.200000  0.000000     24.000000
  0.400000  0.400000  0.000000     12.000000
  0.200000  0.200000  0.200000      8.000000
  0.400000  0.200000  0.200000     24.000000
  0.400000  0.400000  0.200000     24.000000
  0.400000  0.400000  0.400000      8.000000

 Following cartesian coordinates:
            Coordinates               Weight
  0.000000  0.000000  0.000000      1.000000
  0.163558  0.000000  0.000000      6.000000
  0.327116  0.000000  0.000000      6.000000
  0.163558  0.163558  0.000000     12.000000
  0.327116  0.163558  0.000000     24.000000
  0.327116  0.327116  0.000000     12.000000
  0.163558  0.163558  0.163558      8.000000
  0.327116  0.163558  0.163558     24.000000
  0.327116  0.327116  0.163558     24.000000
  0.327116  0.327116  0.327116      8.000000

 SYSTEM =  GaAs
 POSCAR =  cubic gallium arsenide

 Startparameter for this run:
   NWRITE =      2    write-flag & timer
   PREC   = normal    normal or accurate (medium, high low for compatibility)
   ISTART =      1    job   : 0-new  1-cont  2-samecut
   ICHARG =      0    charge: 1-file 2-atom 10-const
   ISPIN  =      1    spin polarized calculation?
   LNONCOLLINEAR =      F non collinear calculations
   LSORBIT =      F    spin-orbit coupling
   INIWAV =      1    electr: 0-lowe 1-rand  2-diag
   LASPH  =      F    aspherical Exc in radial PAW
 Electronic Relaxation 1
   ENCUT  =  400.0 eV  29.40 Ry    5.42 a.u.   8.97  8.97  8.97*2*pi/ulx,y,z
   ENINI  =  400.0     initial cutoff
   ENAUG  =  462.8 eV  augmentation charge cutoff
   NELM   =     60;   NELMIN=  2; NELMDL=  0     # of ELM steps
   EDIFF  = 0.1E-03   stopping-criterion for ELM
   LREAL  =      F    real-space projection
   NLSPLINE    = F    spline interpolate recip. space projectors
   LCOMPAT=      F    compatible to vasp.4.4
   GGA_COMPAT  = T    GGA compatible to vasp.4.4-vasp.4.6
   LMAXPAW     = -100 max onsite density
   LMAXMIX     =    2 max onsite mixed and CHGCAR
   VOSKOWN=      0    Vosko Wilk Nusair interpolation
   ROPT   =    0.00000   0.00000
 Ionic relaxation
   EDIFFG = 0.1E-02   stopping-criterion for IOM
   NSW    =    100    number of steps for IOM
   NBLOCK =      1;   KBLOCK =    100    inner block; outer block
   IBRION =      2    ionic relax: 0-MD 1-quasi-New 2-CG
   NFREE  =      2    steps in history (QN), initial steepest desc. (CG)
   ISIF   =      3    stress and relaxation
   IWAVPR =     11    prediction:  0-non 1-charg 2-wave 3-comb
   ISYM   =      2    0-nonsym 1-usesym 2-fastsym
   LCORR  =      T    Harris-Foulkes like correction to forces

   POTIM  = 0.1000    time-step for ionic-motion
   TEIN   =    0.0    initial temperature
   TEBEG  =    0.0;   TEEND  =   0.0 temperature during run
   SMASS  =  -3.00    Nose mass-parameter (am)
   estimated Nose-frequenzy (Omega)   =  0.10E-29 period in steps = 0.63E+47 mass=  -0.692E-27a.u.
   SCALEE = 1.0000    scale energy and forces
   NPACO  =    256;   APACO  = 10.0  distance and # of slots for P.C.
   PSTRESS=  225.0 pullay stress

  Mass of Ions in am
   POMASS =  74.92 69.72
  Ionic Valenz
   ZVAL   =   5.00  3.00
  Atomic Wigner-Seitz radii
  virtual crystal weights
   VCA    =   1.00  1.00
   NELECT =      32.0000    total number of electrons
   NUPDOWN=      -1.0000    fix difference up-down

 DOS related values:
   EMIN   =  10.00;   EMAX   =-10.00  energy-range for DOS
   EFERMI =   0.00;   METHOD = LEGACY
   ISMEAR =    -5;   SIGMA  =   0.10  broadening in eV -4-tet -1-fermi 0-gaus

 Electronic relaxation 2 (details)
   IALGO  =     38    algorithm
   LDIAG  =      T    sub-space diagonalisation (order eigenvalues)
   LSUBROT=      F    optimize rotation matrix (better conditioning)
   TURBO    =      0    0=normal 1=particle mesh
   IRESTART =      0    0=no restart 2=restart with 2 vectors
   NREBOOT  =      0    no. of reboots
   NMIN     =      0    reboot dimension
   EREF     =   0.00    reference energy to select bands
   IMIX   =      4    mixing-type and parameters
     AMIX     =   0.40;   BMIX     =  1.00
     AMIX_MAG =   1.60;   BMIX_MAG =  1.00
     AMIN     =   0.10
     WC   =   100.;   INIMIX=   1;  MIXPRE=   1;  MAXMIX= -45

 Intra band minimization:
   WEIMIN = 0.0010     energy-eigenvalue tresh-hold
   EBREAK =  0.10E-05  absolut break condition
   DEPER  =   0.30     relativ break condition

   TIME   =   0.40     timestep for ELM

  volume/ion in A,a.u.               =      20.83       140.55
  Fermi-wavevector in a.u.,A,eV,Ry     =   0.944540  1.784922 12.138518  0.892156
  Thomas-Fermi vector in A             =   2.072355

 Write flags
   LWAVE        =      T    write WAVECAR
   LDOWNSAMPLE  =      F    k-point downsampling of WAVECAR
   LCHARG       =      T    write CHGCAR
   LVTOT        =      F    write LOCPOT, total local potential
   LVHAR        =      F    write LOCPOT, Hartree potential only
[...]

 maximum and minimum number of plane-waves per node :      3043     2969

 maximum number of plane-waves:      3043
 maximum index in each direction:
   IXMAX=    8   IYMAX=    8   IZMAX=    8
   IXMIN=   -9   IYMIN=   -9   IZMIN=   -9

 serial   3D FFT for wavefunctions
 parallel 3D FFT for charge:
    minimum data exchange during FFTs selected (reduces bandwidth)

 Broyden mixing: mesh for mixing (old mesh)
   NGX = 17   NGY = 17   NGZ = 17
  (NGX  = 56   NGY  = 56   NGZ  = 56)
  gives a total of   4913 points

 charge density for first step will be calculated from the start-wavefunctions

 Maximum index for augmentation-charges         1159 (set IRDMAX)

 initial charge from wavefunction
 First call to EWALD:  gamma=   0.322
 Maximum number of real-space cells 3x 3x 3
 Maximum number of reciprocal cells 3x 3x 3

--------------------------------------- Ionic step        1  -------------------------------------------

--------------------------------------- Iteration      1(   1)  ---------------------------------------

 BZINTS: Fermi energy:    3.153945;   32.000000 electrons
         Band energy:-0.765351E+02;  BLOECHL correction:    0.000000

 eigenvalue-minimisations  :   544
 total energy-change (2. order) :-0.3258931E+02  (-0.7542506E+00)
 number of electron      32.0000030 magnetization
 augmentation part       -5.2505687 magnetization

 Broyden mixing:
  rms(total) = 0.52841E+00    rms(broyden)= 0.52841E+00
  rms(prec ) = 0.66633E+00
  weight for this iteration     100.00

 Free energy of the ion-electron system (eV)
  alpha Z        PSCENC =        82.12872199
  Ewald energy   TEWEN  =      -941.78307081
  -Hartree energ DENC   =       -71.54195235
  -exchange      EXHF   =         0.00000000
  -V(xc)+E(xc)   XCENC  =      -119.79238163
  PAW double counting   =      2888.93764376    -2710.21976758
  entropy T*S    EENTRO =         0.00000000
  eigenvalues    EBANDS =       -76.53513492
  atomic energy  EATOM  =       916.21663293
  Solvation  Ediel_sol  =         0.00000000
  free energy    TOTEN  =       -32.58930860 eV

  energy without entropy =      -32.58930860  energy(sigma->0) =      -32.58930860

[...]

 eigenvalue-minimisations  :   496
 total energy-change (2. order) : 0.1902532E+00  (-0.3875666E-01)
 number of electron      32.0000029 magnetization
 augmentation part       -5.2428222 magnetization

[...]

 eigenvalues of (default mixing * dielectric matrix)
  average eigenvalue GAMMA=   2.3963
  2.3963

[...]

 eigenvalue-minimisations  :   256
 total energy-change (2. order) :-0.2366848E-04  (-0.4275888E-05)
 number of electron      32.0000029 magnetization
 augmentation part       -5.1970788 magnetization

[...]

 average (electrostatic) potential at core
  the test charge radii are     1.0621  1.2767
  (the norm of the test charge is              1.0000)
       1 -50.8581       2 -50.8581       3 -50.8581       4 -50.8581       5 -13.9854
       6 -13.9854       7 -13.9854       8 -13.9854

 E-fermi :   3.4518     XC(G=0):  -9.5239     alpha+bet : -9.2840

 val. band max:        3.4516560123   @ k =   0.0000   0.0000   0.0000
 cond. band min:       4.6672871784   @ k =   0.0000   0.0000   0.0000
 fundamental gap:      1.2156311660
 Fermi energy:         3.4517753001

 k-point     1 :       0.0000    0.0000    0.0000
  band No.  band energies     occupation
      1      -9.8694      2.00000
      2      -7.1721      2.00000
      3      -7.1721      2.00000
      4      -7.1721      2.00000
      5      -3.7302      2.00000
      6      -3.7302      2.00000
      7      -3.7302      2.00000
      8       0.4864      2.00000
      9       0.4864      2.00000
     10       0.4864      2.00000
     11       0.4864      2.00000
     12       0.4864      2.00000
     13       0.4864      2.00000
     14       3.4517      2.00000
     15       3.4517      2.00000
     16       3.4517      2.00000
     17       4.6673      0.00000
     18       4.7518      0.00000
     19       4.7518      0.00000
     20       4.7518      0.00000
     21       5.0736      0.00000
     22       5.0736      0.00000
     23       5.0736      0.00000
     24       7.2368      0.00000

[...]

 soft charge-density along one line, spin component           1
         0         1         2         3         4         5         6         7         8         9
 total charge-density along one line

------------------------ aborting loop because EDIFF is reached ----------------------------------------

  FORCE on cell =-STRESS in cart. coord.  units (eV):
  Direction    XX          YY          ZZ          XY          YZ          ZX
  Alpha Z    82.12872    82.12872    82.12872
  Ewald    -313.92819  -313.92819  -313.92819     0.00000    -0.00000    -0.00000
  Hartree    26.30425    26.30425    26.30425    -0.00000    -0.00000    -0.00000
  E(xc)    -123.06080  -123.06080  -123.06080    -0.00000    -0.00000     0.00000
  Local    -118.53130  -118.53130  -118.53130    -0.00000     0.00000     0.00000
  n-local   184.18027   186.19006   183.35405    -2.01113    -1.17528    -0.96247
  augment     8.05818     8.05818     8.05818     0.00000     0.00000     0.00000
  Kinetic   260.16990   271.40294   268.99989    -4.83538    -4.62177    -3.06481
  Fock        0.00000     0.00000     0.00000     0.00000     0.00000     0.00000
  Total      12.40323    12.40323    12.40323    -0.00000     0.00000    -0.00000
  in kB     119.27027   119.27027   119.27027    -0.00000     0.00000    -0.00000

 VOLUME and BASIS-vectors are now :
  energy-cutoff  :      400.00
  volume of cell :      166.61
      direct lattice vectors                 reciprocal lattice vectors
     5.502640060  0.000000000  0.000000000     0.181730949  0.000000000  0.000000000
     0.000000000  5.502640060  0.000000000     0.000000000  0.181730949  0.000000000
     0.000000000  0.000000000  5.502640060     0.000000000  0.000000000  0.181730949

[...]

 FORCES acting on ions
    electron-ion (+dipol)            ewald-force                    non-local-force                 convergence-correction
   -.103E-13 0.118E-14 -.258E-14   -.355E-14 0.000E+00 0.000E+00   0.147E-16 -.958E-18 0.434E-16   -.435E-14 0.327E-14 0.105E-14
   -.116E-13 0.283E-12 0.236E-12   -.355E-14 0.355E-14 0.000E+00   0.121E-16 0.109E-16 0.218E-16   0.384E-14 -.422E-15 0.628E-15
   0.710E-14 0.153E-14 0.602E-12   -.355E-14 0.000E+00 0.000E+00   -.761E-17 -.149E-16 0.573E-16   0.284E-14 0.300E-14 -.168E-14
   0.129E-14 0.845E-14 0.939E-14   -.355E-14 0.355E-14 0.000E+00   0.847E-17 -.239E-17 0.428E-16   -.575E-14 -.208E-15 -.174E-14
   -.646E-14 0.486E-13 -.182E-13   0.366E-14 -.317E-14 0.165E-16   -.303E-17 0.153E-17 -.225E-17   -.599E-15 -.497E-15 0.203E-14
   -.116E-13 -.972E-14 0.679E-13   0.323E-14 -.316E-14 0.186E-15   -.472E-17 -.219E-17 -.811E-19   0.258E-14 0.118E-15 -.398E-15
   -.129E-13 -.124E-12 0.148E-12   0.419E-14 -.391E-14 -.181E-15   0.431E-17 -.344E-17 0.422E-18   0.269E-14 -.681E-15 0.225E-14
   -.775E-14 0.305E-13 0.461E-14   0.304E-14 -.390E-14 -.111E-16   0.348E-17 -.442E-18 0.333E-19   -.463E-15 -.222E-15 -.508E-15
   -.523E-13 0.240E-12 0.105E-11   -.995E-16 -.703E-14 0.108E-16   0.277E-16 -.118E-16 0.163E-15   0.789E-15 0.436E-14 0.163E-14

 POSITION                                       TOTAL-FORCE (eV/Angst)
      0.00000      0.00000      0.00000         0.000000     -0.000000     -0.000000
      2.75132      2.75132      0.00000        -0.000000      0.000000      0.000000
      2.75132      0.00000      2.75132        -0.000000      0.000000      0.000000
      0.00000      2.75132      2.75132        -0.000000      0.000000      0.000000
      1.37566      1.37566      1.37566         0.000000     -0.000000     -0.000000
      4.12698      1.37566      4.12698         0.000000     -0.000000      0.000000
      4.12698      4.12698      1.37566         0.000000     -0.000000     -0.000000
      1.37566      4.12698      4.12698         0.000000     -0.000000     -0.000000
    total drift:                               -0.000000      0.000000      0.000000

  FREE ENERGIE OF THE ION-ELECTRON SYSTEM (eV)
  free  energy   TOTEN  =       -32.33535200 eV

  energy  without entropy=      -32.33535200  energy(sigma->0) =      -32.33535200
  enthalpy is  TOTEN    =        -8.93700095 eV   P V=       23.39835105

[...]

 E-fermi :   3.8922     XC(G=0):  -9.6906     alpha+bet : -9.6634

[...]

 d Force = 0.2457638E-61[ 0.170E-61, 0.322E-61]  d Energy = 0.3354044E+00-0.335E+00
 d Force = 0.7637035E-46[ 0.204E-45,-0.514E-46]  d Ewald  = 0.1265667E+02-0.127E+02

 Steepest descent step on ions:
 trial-energy change:   -0.335404  1 .order   -0.330987   -0.437414   -0.224560
  (g-gl).g = 0.437E+00      g.g   = 0.437E+00  gl.gl    = 0.000E+00
 g(Force)  = 0.205E-60   g(Stress)= 0.437E+00 ortho     = 0.000E+00
 gamma     =   0.00000
 trial     =   1.00000
 opt step  =   1.85687  (harmonic =   2.05500) maximal distance =0.00000000
 next E    =    -9.371394   (d E  =  -0.43439)

[...]

 E-fermi :   4.1939     XC(G=0):  -9.8386     alpha+bet :-10.0050

[...]

 d Force = 0.6500316E-62[-0.157E-62, 0.146E-61]  d Energy = 0.1112194E+00-0.111E+00
 d Force = 0.7624861E-46[-0.227E-46, 0.175E-45]  d Ewald  = 0.1111887E+02-0.111E+02

--------------------------------------- Ionic step        4  -------------------------------------------

[...]

 Broyden mixing:
  rms(total) = 0.27679E-02    rms(broyden)= 0.27679E-02
  rms(prec ) = 0.40081E-02
  weight for this iteration     100.00

 eigenvalues of (default mixing * dielectric matrix)
  average eigenvalue GAMMA=   1.2590
  1.8425  0.6755

[...]

--------------------------------------- Iteration      4(   4)  ---------------------------------------

 BZINTS: Fermi energy:    4.237510;   32.000000 electrons
         Band energy:-0.546643E+02;  BLOECHL correction:    0.000000

 eigenvalue-minimisations  :   240
 total energy-change (2. order) : 0.5946980E-05  (-0.2937651E-05)
 number of electron      31.9999979 magnetization
 augmentation part       -5.2459102 magnetization

 Free energy of the ion-electron system (eV)
  alpha Z        PSCENC =        88.93127286
  Ewald energy   TEWEN  =      -967.09846497
  -Hartree energ DENC   =       -73.44132297
  -exchange      EXHF   =         0.00000000
  -V(xc)+E(xc)   XCENC  =      -119.04715095
  PAW double counting   =      2653.97538393    -2475.86588768
  entropy T*S    EENTRO =         0.00000000
  eigenvalues    EBANDS =       -54.66427444
  atomic energy  EATOM  =       916.21663293
  Solvation  Ediel_sol  =         0.00000000
  free energy    TOTEN  =       -30.99381129 eV

  energy without entropy =      -30.99381129  energy(sigma->0) =      -30.99381129

 average (electrostatic) potential at core
  the test charge radii are     1.0621  1.2767
  (the norm of the test charge is              1.0000)
       1 -50.2219       2 -50.2219       3 -50.2219       4 -50.2219       5 -13.3145
       6 -13.3145       7 -13.3145       8 -13.3145

 E-fermi :   4.2375     XC(G=0):  -9.8589     alpha+bet :-10.0530

 val. band max:        4.2126470886   @ k =   0.0000   0.0000   0.0000
 cond. band min:       5.3222755388   @ k =   0.0000   0.0000   0.0000
 fundamental gap:      1.1096284502
 Fermi energy:         4.2375097117

[...]

 k-point    10 :       0.4000    0.4000    0.4000
  band No.  band energies     occupation
      1      -8.0181      2.00000
      2      -7.6195      2.00000
      3      -7.6195      2.00000
      4      -7.6195      2.00000
      5      -3.2344      2.00000
      6      -3.2344      2.00000
      7      -3.2344      2.00000
      8      -2.7578      2.00000
      9       1.9456      2.00000
     10       1.9456      2.00000
     11       1.9456      2.00000
     12       2.5436      2.00000
     13       2.5436      2.00000
     14       2.5436      2.00000
     15       2.8996      2.00000
     16       2.8996      2.00000
     17       5.8334      0.00000
     18       6.5654      0.00000
     19       6.5654      0.00000
     20       6.5654      0.00000
     21       8.5883      0.00000
     22       8.5883      0.00000
     23       8.5883      0.00000
     24       8.9600      0.00000

 soft charge-density along one line, spin component           1
         0         1         2         3         4         5         6         7         8         9
 total charge-density along one line

------------------------ aborting loop because EDIFF is reached ----------------------------------------

  FORCE on cell =-STRESS in cart. coord.  units (eV):
  Direction    XX          YY          ZZ          XY          YZ          ZX
  Alpha Z    88.93127    88.93127    88.93127
  Ewald    -322.36666  -322.36666  -322.36666     0.00000     0.00000     0.00000
  Hartree    24.48016    24.48016    24.48016    -0.00000    -0.00000    -0.00000
  E(xc)    -125.50160  -125.50160  -125.50160    -0.00000    -0.00000     0.00000
  Local    -117.67840  -117.67840  -117.67840    -0.00000     0.00000     0.00000
  n-local   191.10684   192.98091   190.04229    -2.05133    -1.16892    -0.96716
  augment     8.62314     8.62314     8.62314     0.00000    -0.00000     0.00000
  Kinetic   266.72958   278.19899   276.35329    -4.79809    -4.70487    -3.06262
  Fock        0.00000     0.00000     0.00000     0.00000     0.00000     0.00000
  Total      21.62522    21.62522    21.62522    -0.00000    -0.00000     0.00000
  in kB     225.17345   225.17345   225.17345    -0.00000    -0.00000     0.00000

 VOLUME and BASIS-vectors are now :
  energy-cutoff  :      400.00
  volume of cell :      153.87
      direct lattice vectors                 reciprocal lattice vectors
     5.358599399 -0.000000000 -0.000000000     0.186615928  0.000000000 -0.000000000
    -0.000000000  5.358599399 -0.000000000     0.000000000  0.186615928 -0.000000000
     0.000000000  0.000000000  5.358599399     0.000000000  0.000000000  0.186615928

  length of vectors
     5.358599399  5.358599399  5.358599399     0.186615928  0.186615928  0.186615928

 FORCES acting on ions
    electron-ion (+dipol)            ewald-force                    non-local-force                 convergence-correction
   -.106E-13 -.462E-13 -.246E-13   0.711E-14 0.178E-13 0.355E-14   -.427E-16 -.254E-16 -.148E-16   0.325E-14 -.670E-13 0.209E-13
   0.464E-14 0.284E-12 0.233E-12   0.711E-14 0.107E-13 0.355E-14   -.657E-17 -.114E-16 -.375E-16   0.116E-14 0.317E-13 0.241E-13
   0.199E-14 0.100E-14 0.586E-12   0.711E-14 0.178E-13 0.355E-14   -.615E-16 -.111E-16 -.102E-17   -.144E-15 -.445E-14 -.132E-13
   0.133E-14 0.975E-12 0.461E-12   0.711E-14 0.107E-13 0.355E-14   0.245E-16 0.166E-16 -.931E-17   0.108E-14 0.342E-14 -.449E-13
   0.186E-13 0.461E-13 -.262E-13   -.837E-14 -.147E-13 -.391E-14   0.117E-18 -.122E-17 0.405E-17   0.407E-15 0.122E-15 0.134E-13
   0.106E-13 -.391E-14 0.518E-13   -.683E-14 -.147E-13 0.167E-15   -.509E-17 0.185E-17 0.187E-17   -.390E-14 -.633E-14 -.747E-14
   0.663E-14 -.121E-12 0.135E-12   -.703E-14 -.137E-13 -.376E-14   -.112E-17 0.156E-17 -.393E-18   0.977E-14 -.328E-14 -.625E-14
   0.106E-13 0.314E-13 0.303E-14   -.625E-14 -.137E-13 0.312E-15   0.663E-18 0.151E-17 -.257E-17   -.613E-15 0.473E-14 0.125E-13
   0.438E-13 0.117E-11 0.142E-11   -.575E-16 0.753E-16 0.702E-14   -.917E-16 -.276E-16 -.597E-16   0.110E-13 -.411E-13 -.101E-14

 POSITION                                       TOTAL-FORCE (eV/Angst)
     -0.00000      5.35860      5.35860         0.000000      0.000000      0.000000
      2.67930      2.67930     -0.00000         0.000000     -0.000000      0.000000
      2.67930      0.00000      2.67930         0.000000      0.000000      0.000000
      5.35860      2.67930      2.67930         0.000000      0.000000      0.000000
      1.33965      1.33965      1.33965        -0.000000     -0.000000     -0.000000
      4.01895      1.33965      4.01895        -0.000000     -0.000000     -0.000000
      4.01895      4.01895      1.33965        -0.000000     -0.000000     -0.000000
      1.33965      4.01895      4.01895        -0.000000     -0.000000     -0.000000
    total drift:                                0.000000      0.000000      0.000000

  FREE ENERGIE OF THE ION-ELECTRON SYSTEM (eV)
  free  energy   TOTEN  =       -30.99381129 eV

  energy  without entropy=      -30.99381129  energy(sigma->0) =      -30.99381129
  enthalpy is  TOTEN    =        -9.38525216 eV   P V=       21.60855913

 d Force = 0.4321100E-62[ 0.886E-62,-0.217E-63]  d Energy = 0.1627429E-02-0.163E-02
 d Force = 0.1360360E-46[ 0.303E-46,-0.314E-47]  d Ewald  = 0.1539847E+01-0.154E+01

 reached required accuracy - stopping structural energy minimisation
 writing wavefunctions
 BZINTS: Fermi energy:    4.237510;   32.000000 electrons
         Band energy:-0.546643E+02;  BLOECHL correction:    0.000000