 vasp.6.4.3 19Mar24 (build Aug 29 2024 15:27:20) complex

 executed on             LinuxIFC date 2025.03.13  14:21:42

 INCAR:
   SYSTEM = GaAs
   PREC = Normal
   ENCUT = 400
   ISMEAR = -5
   SIGMA = 0.1
   IBRION = 2
   POTIM = 0.1
   NFREE = 2
   NSW = 100
   ISIF = 3
   PSTRESS = 100

 POTCAR:    PAW_PBE As 22Sep2009
 POTCAR:    PAW_PBE Ga 08Apr2002
|           W    W    AA    RRRRR   N    N  II  N    N   GGGG   !!!           |
|           W    W   A  A   R    R  NN   N  II  NN   N  G    G  !!!           |
|           W    W  A    A  R    R  N N  N  II  N N  N  G       !!!           |
|           W WW W  AAAAAA  RRRRR   N  N N  II  N  N N  G  GGG   !            |
|           WW  WW  A    A  R   R   N   NN  II  N   NN  G    G                |
|           W    W  A    A  R    R  N    N  II  N    N   GGGG   !!!           |
|     For optimal performance we recommend to set                             |
|       NCORE = 2 up to number-of-cores-per-socket                            |
|     This setting can greatly improve the performance of VASP for DFT.       |
|     The default, NCORE=1 might be grossly inefficient on modern             |
|     multi-core architectures or massively parallel machines. Do your        |
|     Unfortunately you need to use the default for GW and RPA                |
|     calculations (for HF NCORE is supported but not extensively tested      |
|     yet).                                                                   |

 POTCAR:    PAW_PBE As 22Sep2009
   VRHFIN =As: s2p3

   TITEL  = PAW_PBE As 22Sep2009
   POMASS =   74.922; ZVAL   =    5.000    mass and valenz
   ENMAX  =  208.702; ENMIN  =  156.526 eV

 POTCAR:    PAW_PBE Ga 08Apr2002
   VRHFIN =Ga: s2p1

   TITEL  = PAW_PBE Ga 08Apr2002
   POMASS =   69.723; ZVAL   =    3.000    mass and valenz
   ENMAX  =  134.678; ENMIN  =  101.009 eV

  PAW_PBE As 22Sep2009                  :
  PAW_PBE Ga 08Apr2002                  :

 POSCAR: cubic gallium arsenide
  positions in direct lattice
  velocities in cartesian coordinates

 exchange-correlation table for PE
   RHO(1)=    0.500       N(1)  =     2000
   RHO(2)=  100.500       N(2)  =     4000

 ion  position               nearest neighbor table
   1  0.000  0.000  0.000-   5 2.38   6 2.38   7 2.38   8 2.38
   2  0.500  0.500  0.000-   5 2.38   6 2.38   7 2.38   8 2.38
   3  0.500  0.000  0.500-   5 2.38   6 2.38   7 2.38   8 2.38
   4  0.000  0.500  0.500-   5 2.38   6 2.38   7 2.38   8 2.38
   5  0.250  0.250  0.250-   1 2.38   2 2.38   3 2.38   4 2.38
   6  0.750  0.250  0.750-   1 2.38   2 2.38   3 2.38   4 2.38
   7  0.750  0.750  0.250-   1 2.38   2 2.38   3 2.38   4 2.38
   8  0.250  0.750  0.750-   1 2.38   2 2.38   3 2.38   4 2.38

  LATTYP: Found a simple cubic cell.
 ALAT       =     5.5026400603

  Lattice vectors:

 A1 = (   5.5026400603,   0.0000000000,   0.0000000000)
 A2 = (   0.0000000000,   5.5026400603,   0.0000000000)
 A3 = (   0.0000000000,   0.0000000000,   5.5026400603)

Analysis of symmetry for initial positions (statically):
 Subroutine PRICEL returns following result:

  LATTYP: Found a face centered cubic cell.
 ALAT       =     5.5026400603

[...]

   4 primitive cells build up your supercell.

 Routine SETGRP: Setting up the symmetry group for a
 simple cubic supercell.

 Subroutine GETGRP returns: Found 24 space group operations
 (whereof 24 operations were pure point group operations)
 out of a pool of 48 trial point group operations.

The static configuration has the point symmetry T_d .

Analysis of symmetry for dynamics (positions and initial velocities):
 Subroutine PRICEL returns following result:

  LATTYP: Found a face centered cubic cell.
 ALAT       =     5.5026400603

  Lattice vectors:

 A1 = (   2.7513200301,  -2.7513200301,   0.0000000000)
 A2 = (   2.7513200301,   0.0000000000,   2.7513200301)
 A3 = (   0.0000000000,  -2.7513200301,   2.7513200301)

   4 primitive cells build up your supercell.

 Routine SETGRP: Setting up the symmetry group for a
 simple cubic supercell.

 Subroutine GETGRP returns: Found 24 space group operations
 (whereof 24 operations were pure point group operations)
 out of a pool of 48 trial point group operations.

The dynamic configuration has the point symmetry T_d .

 Subroutine INISYM returns: Found 24 space group operations
 (whereof 24 operations are pure point group operations),
 and found     4 'primitive' translations

                                     Primitive cell

  volume of cell :      41.6537

  direct lattice vectors                    reciprocal lattice vectors
     2.751320030 -2.751320030  0.000000000     0.181730949 -0.181730949 -0.181730949
     2.751320030  0.000000000  2.751320030     0.181730949  0.181730949  0.181730949
     0.000000000 -2.751320030  2.751320030    -0.181730949 -0.181730949  0.181730949

  length of vectors
     3.890954101  3.890954101  3.890954101     0.314767237  0.314767237  0.314767237

  position of ions in fractional coordinates (direct lattice)
     0.000000000  0.000000000  0.000000000
     0.750000000  0.750000000  0.750000000

  ion indices of the primitive-cell ions
   primitive index   ion index
                 1           1
                 2           5

 KPOINTS: Automatic mesh

Automatic generation of k-mesh.
 Grid dimensions read from file:
 generate k-points for:    5    5    5

 Generating k-lattice:

  Cartesian coordinates                     Fractional coordinates (reciprocal lattice)
     0.036346190  0.000000000  0.000000000     0.200000000  0.000000000  0.000000000
     0.000000000  0.036346190  0.000000000     0.000000000  0.200000000  0.000000000
     0.000000000  0.000000000  0.036346190     0.000000000  0.000000000  0.200000000

  Length of vectors
     0.036346190  0.036346190  0.036346190

  Shift w.r.t. Gamma in fractional coordinates (k-lattice)
     0.000000000  0.000000000  0.000000000

 TETIRR: Found     57 inequivalent tetrahedra from      750

 Subroutine IBZKPT returns following result:

 Found     10 irreducible k-points:

 Following reciprocal coordinates:
            Coordinates               Weight
  0.000000  0.000000  0.000000      1.000000
  0.200000  0.000000  0.000000      6.000000
  0.400000  0.000000  0.000000      6.000000
  0.200000  0.200000  0.000000     12.000000
  0.400000  0.200000  0.000000     24.000000
  0.400000  0.400000  0.000000     12.000000
  0.200000  0.200000  0.200000      8.000000
  0.400000  0.200000  0.200000     24.000000
  0.400000  0.400000  0.200000     24.000000
  0.400000  0.400000  0.400000      8.000000

 Following cartesian coordinates:
            Coordinates               Weight
  0.000000  0.000000  0.000000      1.000000
  0.163558  0.000000  0.000000      6.000000
  0.327116  0.000000  0.000000      6.000000
  0.163558  0.163558  0.000000     12.000000
  0.327116  0.163558  0.000000     24.000000
  0.327116  0.327116  0.000000     12.000000
  0.163558  0.163558  0.163558      8.000000
  0.327116  0.163558  0.163558     24.000000
  0.327116  0.327116  0.163558     24.000000
  0.327116  0.327116  0.327116      8.000000

 SYSTEM =  GaAs
 POSCAR =  cubic gallium arsenide

 Startparameter for this run:
   NWRITE =      2    write-flag & timer
   PREC   = normal    normal or accurate (medium, high low for compatibility)
   ISTART =      0    job   : 0-new  1-cont  2-samecut
   ICHARG =      2    charge: 1-file 2-atom 10-const
   ISPIN  =      1    spin polarized calculation?
   LNONCOLLINEAR =      F non collinear calculations
   LSORBIT =      F    spin-orbit coupling
   INIWAV =      1    electr: 0-lowe 1-rand  2-diag
   LASPH  =      F    aspherical Exc in radial PAW
 Electronic Relaxation 1
   ENCUT  =  400.0 eV  29.40 Ry    5.42 a.u.   8.97  8.97  8.97*2*pi/ulx,y,z
   ENINI  =  400.0     initial cutoff
   ENAUG  =  462.8 eV  augmentation charge cutoff
   NELM   =     60;   NELMIN=  2; NELMDL= -5     # of ELM steps
   EDIFF  = 0.1E-03   stopping-criterion for ELM
   LREAL  =      F    real-space projection
   NLSPLINE    = F    spline interpolate recip. space projectors
   LCOMPAT=      F    compatible to vasp.4.4
   GGA_COMPAT  = T    GGA compatible to vasp.4.4-vasp.4.6
   LMAXPAW     = -100 max onsite density
   LMAXMIX     =    2 max onsite mixed and CHGCAR
   VOSKOWN=      0    Vosko Wilk Nusair interpolation
   ROPT   =    0.00000   0.00000
 Ionic relaxation
   EDIFFG = 0.1E-02   stopping-criterion for IOM
   NSW    =    100    number of steps for IOM
   NBLOCK =      1;   KBLOCK =    100    inner block; outer block
   IBRION =      2    ionic relax: 0-MD 1-quasi-New 2-CG
   NFREE  =      2    steps in history (QN), initial steepest desc. (CG)
   ISIF   =      3    stress and relaxation
   IWAVPR =     11    prediction:  0-non 1-charg 2-wave 3-comb
   ISYM   =      2    0-nonsym 1-usesym 2-fastsym
   LCORR  =      T    Harris-Foulkes like correction to forces

   POTIM  = 0.1000    time-step for ionic-motion
   TEIN   =    0.0    initial temperature
   TEBEG  =    0.0;   TEEND  =   0.0 temperature during run
   SMASS  =  -3.00    Nose mass-parameter (am)
   estimated Nose-frequenzy (Omega)   =  0.10E-29 period in steps = 0.63E+47 mass=  -0.692E-27a.u.
   SCALEE = 1.0000    scale energy and forces
   NPACO  =    256;   APACO  = 10.0  distance and # of slots for P.C.
   PSTRESS=  100.0 pullay stress

  Mass of Ions in am
   POMASS =  74.92 69.72
  Ionic Valenz
   ZVAL   =   5.00  3.00
  Atomic Wigner-Seitz radii
  virtual crystal weights
   VCA    =   1.00  1.00
   NELECT =      32.0000    total number of electrons
   NUPDOWN=      -1.0000    fix difference up-down

 DOS related values:
   EMIN   =  10.00;   EMAX   =-10.00  energy-range for DOS
   EFERMI =   0.00;   METHOD = LEGACY
   ISMEAR =    -5;   SIGMA  =   0.10  broadening in eV -4-tet -1-fermi 0-gaus

 Electronic relaxation 2 (details)
   IALGO  =     38    algorithm
   LDIAG  =      T    sub-space diagonalisation (order eigenvalues)
   LSUBROT=      F    optimize rotation matrix (better conditioning)
   TURBO    =      0    0=normal 1=particle mesh
   IRESTART =      0    0=no restart 2=restart with 2 vectors
   NREBOOT  =      0    no. of reboots
   NMIN     =      0    reboot dimension
   EREF     =   0.00    reference energy to select bands
   IMIX   =      4    mixing-type and parameters
     AMIX     =   0.40;   BMIX     =  1.00
     AMIX_MAG =   1.60;   BMIX_MAG =  1.00
     AMIN     =   0.10
     WC   =   100.;   INIMIX=   1;  MIXPRE=   1;  MAXMIX= -45

 Intra band minimization:
   WEIMIN = 0.0010     energy-eigenvalue tresh-hold
   EBREAK =  0.10E-05  absolut break condition
   DEPER  =   0.30     relativ break condition

   TIME   =   0.40     timestep for ELM

  volume/ion in A,a.u.               =      20.83       140.55
  Fermi-wavevector in a.u.,A,eV,Ry     =   0.944540  1.784922 12.138518  0.892156
  Thomas-Fermi vector in A             =   2.072355

 Write flags
   LWAVE        =      T    write WAVECAR
   LDOWNSAMPLE  =      F    k-point downsampling of WAVECAR
   LCHARG       =      T    write CHGCAR
   LVTOT        =      F    write LOCPOT, total local potential
   LVHAR        =      F    write LOCPOT, Hartree potential only
[...]
 k-point     9 :   0.4000 0.4000 0.2000  plane waves:    3034
 k-point    10 :   0.4000 0.4000 0.4000  plane waves:    3034

 maximum and minimum number of plane-waves per node :      3043     2969

 maximum number of plane-waves:      3043
 maximum index in each direction:
   IXMAX=    8   IYMAX=    8   IZMAX=    8
   IXMIN=   -9   IYMIN=   -9   IZMIN=   -9

 serial   3D FFT for wavefunctions
 parallel 3D FFT for charge:
    minimum data exchange during FFTs selected (reduces bandwidth)

 Broyden mixing: mesh for mixing (old mesh)
   NGX = 17   NGY = 17   NGZ = 17
  (NGX  = 56   NGY  = 56   NGZ  = 56)
  gives a total of   4913 points

 initial charge density was supplied:
 charge density of overlapping atoms calculated
 number of electron      32.0000000 magnetization
 keeping initial charge density in first step

 Maximum index for augmentation-charges         1159 (set IRDMAX)

 First call to EWALD:  gamma=   0.322
 Maximum number of real-space cells 3x 3x 3
 Maximum number of reciprocal cells 3x 3x 3

--------------------------------------- Ionic step        1  -------------------------------------------

--------------------------------------- Iteration      1(   1)  ---------------------------------------

 BZINTS: Fermi energy:   10.055461;   32.000000 electrons
         Band energy: 0.515124E+02;  BLOECHL correction:   -0.093140

 eigenvalue-minimisations  :   480
 total energy-change (2. order) : 0.1015374E+03  (-0.1037268E+04)
 number of electron      32.0000000 magnetization
 augmentation part       32.0000000 magnetization

 Free energy of the ion-electron system (eV)
  alpha Z        PSCENC =        82.12872199
  Ewald energy   TEWEN  =      -941.78307081
  -Hartree energ DENC   =       -64.07113845
  -exchange      EXHF   =         0.00000000
  -V(xc)+E(xc)   XCENC  =      -122.99443074
  PAW double counting   =       836.52070738     -655.99241954
  entropy T*S    EENTRO =         0.00000000
  eigenvalues    EBANDS =        51.51240084
  atomic energy  EATOM  =       916.21663293
  Solvation  Ediel_sol  =         0.00000000
  free energy    TOTEN  =       101.53740359 eV

  energy without entropy =      101.53740359  energy(sigma->0) =      101.53740359

[...]

 BZINTS: Fermi energy:    3.537258;   32.000000 electrons
         Band energy:-0.756050E+02;  BLOECHL correction:    0.000000

 eigenvalue-minimisations  :   632
 total energy-change (2. order) :-0.1271174E+03  (-0.1198337E+03)
 number of electron      32.0000000 magnetization
 augmentation part       32.0000000 magnetization

[...]

 Broyden mixing:
  rms(total) = 0.86602E+00    rms(broyden)= 0.86601E+00
  rms(prec ) = 0.12149E+01
  weight for this iteration     100.00

[...]

 eigenvalues of (default mixing * dielectric matrix)
  average eigenvalue GAMMA=   2.3456
  2.3456

[...]

 average (electrostatic) potential at core
  the test charge radii are     1.0621  1.2767
  (the norm of the test charge is              1.0000)
       1 -50.8593       2 -50.8593       3 -50.8593       4 -50.8593       5 -13.9815
       6 -13.9815       7 -13.9815       8 -13.9815

 E-fermi :   3.4528     XC(G=0):  -9.5225     alpha+bet : -9.2840

 val. band max:        3.4518040058   @ k =   0.0000   0.0000   0.0000
 cond. band min:       4.6687957895   @ k =   0.0000   0.0000   0.0000
 fundamental gap:      1.2169917837
 Fermi energy:         3.4528366737

 k-point     1 :       0.0000    0.0000    0.0000
  band No.  band energies     occupation
      1      -9.8688      2.00000
      2      -7.1719      2.00000
      3      -7.1719      2.00000
      4      -7.1719      2.00000
      5      -3.7291      2.00000
      6      -3.7291      2.00000
      7      -3.7291      2.00000
      8       0.4867      2.00000
      9       0.4867      2.00000
     10       0.4867      2.00000
     11       0.4867      2.00000
     12       0.4867      2.00000
     13       0.4867      2.00000
     14       3.4518      2.00000
     15       3.4518      2.00000
     16       3.4518      2.00000
     17       4.6688      0.00000
     18       4.7533      0.00000
     19       4.7533      0.00000
     20       4.7533      0.00000
     21       5.0750      0.00000
     22       5.0750      0.00000
     23       5.0750      0.00000
     24       7.2374      0.00000

[...]

 soft charge-density along one line, spin component           1
         0         1         2         3         4         5         6         7         8         9
 total charge-density along one line

------------------------ aborting loop because EDIFF is reached ----------------------------------------

  FORCE on cell =-STRESS in cart. coord.  units (eV):
  Direction    XX          YY          ZZ          XY          YZ          ZX
  Alpha Z    82.12872    82.12872    82.12872
  Ewald    -313.92819  -313.92819  -313.92819     0.00000    -0.00000    -0.00000
  Hartree    26.30759    26.30759    26.30759    -0.00000    -0.00000    -0.00000
  E(xc)    -123.06849  -123.06849  -123.06849    -0.00000    -0.00000     0.00000
  Local    -118.54698  -118.54698  -118.54698    -0.00000     0.00000     0.00000
  n-local   184.18919   186.19850   183.36300    -2.01067    -1.17511    -0.96234
  augment     8.05678     8.05678     8.05678     0.00000     0.00000     0.00000
  Kinetic   260.17421   271.40447   269.00145    -4.83498    -4.62101    -3.06454
  Fock        0.00000     0.00000     0.00000     0.00000     0.00000     0.00000
  Total      12.39304    12.39304    12.39304     0.00000    -0.00000     0.00000
  in kB     119.17221   119.17221   119.17221     0.00000    -0.00000     0.00000

 VOLUME and BASIS-vectors are now :
  energy-cutoff  :      400.00
  volume of cell :      166.61
      direct lattice vectors                 reciprocal lattice vectors
     5.502640060  0.000000000  0.000000000     0.181730949  0.000000000  0.000000000
     0.000000000  5.502640060  0.000000000     0.000000000  0.181730949  0.000000000
     0.000000000  0.000000000  5.502640060     0.000000000  0.000000000  0.181730949

[...]

 FORCES acting on ions
    electron-ion (+dipol)            ewald-force                    non-local-force                 convergence-correction
   -.775E-14 -.564E-14 0.258E-14   -.355E-14 0.000E+00 0.000E+00   0.172E-18 -.267E-16 0.137E-16   -.279E-14 0.557E-14 0.296E-14
   -.387E-14 0.285E-12 0.240E-12   -.355E-14 0.355E-14 0.000E+00   0.102E-16 0.203E-17 0.206E-16   0.593E-14 -.329E-14 0.306E-14
   -.710E-14 -.518E-14 0.597E-12   -.355E-14 0.000E+00 0.000E+00   0.135E-16 -.128E-16 0.279E-16   0.605E-14 0.553E-14 -.569E-14
   -.110E-13 0.114E-13 0.497E-14   -.355E-14 0.355E-14 0.000E+00   0.522E-16 0.156E-16 0.205E-16   -.293E-14 -.440E-14 -.356E-14
   0.129E-13 0.475E-13 -.171E-13   0.366E-14 -.317E-14 0.165E-16   -.349E-17 0.319E-18 -.330E-18   -.171E-14 -.437E-14 0.257E-14
   0.103E-13 -.118E-13 0.641E-13   0.323E-14 -.316E-14 0.186E-15   -.338E-17 0.515E-18 0.447E-17   0.309E-14 -.391E-14 0.569E-15
   0.517E-14 -.125E-12 0.148E-12   0.419E-14 -.391E-14 -.181E-15   0.737E-18 -.558E-17 0.187E-17   0.228E-14 0.527E-14 0.252E-14
   0.103E-13 0.304E-13 0.484E-14   0.304E-14 -.390E-14 -.111E-16   0.591E-17 -.577E-17 0.399E-17   -.194E-14 0.479E-14 0.815E-15
   0.904E-14 0.226E-12 0.104E-11   -.995E-16 -.703E-14 0.108E-16   0.758E-16 -.324E-16 0.927E-16   0.798E-14 0.519E-14 0.325E-14

 POSITION                                       TOTAL-FORCE (eV/Angst)
      0.00000      0.00000      0.00000        -0.000000      0.000000      0.000000
      2.75132      2.75132      0.00000         0.000000     -0.000000     -0.000000
      2.75132      0.00000      2.75132         0.000000     -0.000000      0.000000
      0.00000      2.75132      2.75132         0.000000      0.000000      0.000000
      1.37566      1.37566      1.37566        -0.000000     -0.000000     -0.000000
      4.12698      1.37566      4.12698        -0.000000     -0.000000     -0.000000
      4.12698      4.12698      1.37566        -0.000000     -0.000000     -0.000000
      1.37566      4.12698      4.12698        -0.000000     -0.000000     -0.000000
    total drift:                                0.000000      0.000000      0.000000

  FREE ENERGIE OF THE ION-ELECTRON SYSTEM (eV)
  free  energy   TOTEN  =       -32.33536442 eV

  energy  without entropy=      -32.33536442  energy(sigma->0) =      -32.33536442
  enthalpy is  TOTEN    =       -21.93609728 eV   P V=       10.39926713

[...]

 d Force = 0.3520632E-61[-0.580E-62, 0.762E-61]  d Energy = 0.1122859E-01-0.112E-01
 d Force = 0.2092820E-45[ 0.493E-45,-0.740E-46]  d Ewald  =-0.2259196E+01 0.226E+01

 Steepest descent step on ions:
 trial-energy change:   -0.011229  1 .order   -0.011387   -0.014383   -0.008392
  (g-gl).g = 0.144E-01      g.g   = 0.144E-01  gl.gl    = 0.000E+00
 g(Force)  = 0.848E-60   g(Stress)= 0.144E-01 ortho     = 0.000E+00
 gamma     =   0.00000
 trial     =   1.00000
 opt step  =   2.40089  (harmonic =   2.40089) maximal distance =0.00000000
 next E    =   -21.953363   (d E  =  -0.01727)

--------------------------------------- Ionic step        3  -------------------------------------------

[...]

 eigenvalue-minimisations  :   544
 total energy-change (2. order) :-0.1162456E+00  (-0.9820848E-02)
 number of electron      32.0000037 magnetization
 augmentation part       -5.1968521 magnetization

[...]

 Broyden mixing:
  rms(total) = 0.54674E-02    rms(broyden)= 0.54673E-02
  rms(prec ) = 0.85060E-02
  weight for this iteration     100.00

 eigenvalues of (default mixing * dielectric matrix)
  average eigenvalue GAMMA=   1.2575
  0.7079  1.8070

[...]

--------------------------------------- Iteration      3(   4)  ---------------------------------------

 BZINTS: Fermi energy:    3.325191;   32.000000 electrons
         Band energy:-0.713364E+02;  BLOECHL correction:    0.000000

 eigenvalue-minimisations  :   360
 total energy-change (2. order) : 0.4228453E-04  (-0.1508464E-04)
 number of electron      32.0000037 magnetization
 augmentation part       -5.1896284 magnetization

 Free energy of the ion-electron system (eV)
  alpha Z        PSCENC =        80.72254942
  Ewald energy   TEWEN  =      -936.37716530
  -Hartree energ DENC   =       -80.09297462
  -exchange      EXHF   =         0.00000000
  -V(xc)+E(xc)   XCENC  =      -120.23718453
  PAW double counting   =      2238.76972780    -2060.19863976
  entropy T*S    EENTRO =         0.00000000
  eigenvalues    EBANDS =       -71.33642367
  atomic energy  EATOM  =       916.21663293
  Solvation  Ediel_sol  =         0.00000000
  free energy    TOTEN  =       -32.53347772 eV

  energy without entropy =      -32.53347772  energy(sigma->0) =      -32.53347772

 average (electrostatic) potential at core
  the test charge radii are     1.0621  1.2767
  (the norm of the test charge is              1.0000)
       1 -50.9901       2 -50.9901       3 -50.9901       4 -50.9901       5 -14.1298
       6 -14.1298       7 -14.1298       8 -14.1298

 E-fermi :   3.3252     XC(G=0):  -9.4511     alpha+bet : -9.1250

 val. band max:        3.2964727366   @ k =   0.0000   0.0000   0.0000
 cond. band min:       4.3735258384   @ k =   0.0000   0.0000   0.0000
 fundamental gap:      1.0770531017
 Fermi energy:         3.3251909656

[...]

 k-point    10 :       0.4000    0.4000    0.4000
  band No.  band energies     occupation
      1      -8.3516      2.00000
      2      -8.0200      2.00000
      3      -8.0200      2.00000
      4      -8.0200      2.00000
      5      -3.5539      2.00000
      6      -3.5539      2.00000
      7      -3.5539      2.00000
      8      -3.1361      2.00000
      9       1.2524      2.00000
     10       1.2524      2.00000
     11       1.2524      2.00000
     12       1.8342      2.00000
     13       1.8342      2.00000
     14       1.8342      2.00000
     15       2.1447      2.00000
     16       2.1447      2.00000
     17       4.6094      0.00000
     18       5.3450      0.00000
     19       5.3450      0.00000
     20       5.3450      0.00000
     21       7.6938      0.00000
     22       7.6938      0.00000
     23       7.6938      0.00000
     24       8.0257      0.00000

 soft charge-density along one line, spin component           1
         0         1         2         3         4         5         6         7         8         9
 total charge-density along one line

------------------------ aborting loop because EDIFF is reached ----------------------------------------

  FORCE on cell =-STRESS in cart. coord.  units (eV):
  Direction    XX          YY          ZZ          XY          YZ          ZX
  Alpha Z    80.72255    80.72255    80.72255
  Ewald    -312.12621  -312.12621  -312.12621    -0.00000     0.00000     0.00000
  Hartree    26.70236    26.70236    26.70236    -0.00000    -0.00000    -0.00000
  E(xc)    -122.55407  -122.55407  -122.55407    -0.00000    -0.00000     0.00000
  Local    -118.73845  -118.73845  -118.73845    -0.00000     0.00000     0.00000
  n-local   182.77017   184.81115   181.99757    -2.00433    -1.17618    -0.96143
  augment     7.95571     7.95571     7.95571     0.00000     0.00000     0.00000
  Kinetic   258.83247   270.02081   267.50503    -4.84668    -4.60510    -3.06595
  Fock        0.00000     0.00000     0.00000     0.00000     0.00000     0.00000
  Total      10.60762    10.60762    10.60762     0.00000    -0.00000     0.00000
  in kB     100.25707   100.25707   100.25707     0.00000    -0.00000     0.00000

 VOLUME and BASIS-vectors are now :
  energy-cutoff  :      400.00
  volume of cell :      169.52
      direct lattice vectors                 reciprocal lattice vectors
     5.534407977 -0.000000000  0.000000000     0.180687800 -0.000000000 -0.000000000
     0.000000000  5.534407977  0.000000000     0.000000000  0.180687800  0.000000000
     0.000000000 -0.000000000  5.534407977    -0.000000000  0.000000000  0.180687800

  length of vectors
     5.534407977  5.534407977  5.534407977     0.180687800  0.180687800  0.180687800

 FORCES acting on ions
    electron-ion (+dipol)            ewald-force                    non-local-force                 convergence-correction
   0.109E-13 -.592E-15 -.467E-15   -.355E-14 -.107E-13 -.355E-14   0.120E-16 -.384E-17 0.299E-16   0.329E-14 0.103E-13 -.476E-13
   0.963E-14 0.282E-12 0.241E-12   -.355E-14 -.142E-13 -.355E-14   0.176E-16 -.412E-17 0.130E-16   -.206E-14 -.239E-13 0.146E-13
   0.141E-13 0.465E-14 0.602E-12   -.355E-14 -.107E-13 -.355E-14   0.348E-16 -.172E-16 0.197E-17   -.288E-14 -.171E-13 -.452E-13
   0.321E-14 0.626E-14 0.807E-14   -.355E-14 -.142E-13 -.355E-14   0.261E-16 -.182E-16 -.906E-18   0.125E-14 0.558E-14 0.126E-13
   0.000E+00 0.439E-13 -.184E-13   0.387E-14 0.104E-13 0.679E-14   0.102E-17 0.178E-17 -.149E-17   0.142E-13 0.373E-14 -.499E-14
   0.154E-13 -.119E-13 0.633E-13   0.385E-14 0.105E-13 0.370E-14   -.650E-18 0.173E-17 0.154E-17   0.126E-13 0.378E-14 0.617E-14
   0.899E-14 -.122E-12 0.152E-12   0.363E-14 0.109E-13 0.690E-14   -.142E-17 0.127E-17 -.312E-17   -.134E-13 -.242E-14 0.779E-14
   0.514E-14 0.345E-13 0.520E-14   0.290E-14 0.109E-13 0.381E-14   0.377E-17 -.197E-17 0.370E-18   -.123E-13 -.125E-14 -.615E-14
   0.674E-13 0.236E-12 0.105E-11   0.410E-16 -.711E-14 0.700E-14   0.931E-16 -.405E-16 0.412E-16   0.755E-15 -.213E-13 -.627E-13

 POSITION                                       TOTAL-FORCE (eV/Angst)
      0.00000      0.00000      0.00000        -0.000000      0.000000     -0.000000
      2.76720      2.76720      0.00000        -0.000000      0.000000     -0.000000
      2.76720     -0.00000      2.76720        -0.000000     -0.000000     -0.000000
      0.00000      2.76720      2.76720        -0.000000     -0.000000     -0.000000
      1.38360      1.38360      1.38360         0.000000      0.000000      0.000000
      4.15081      1.38360      4.15081         0.000000     -0.000000      0.000000
      4.15081      4.15081      1.38360         0.000000     -0.000000      0.000000
      1.38360      4.15081      4.15081         0.000000     -0.000000      0.000000
    total drift:                                0.000000      0.000000      0.000000

  FREE ENERGIE OF THE ION-ELECTRON SYSTEM (eV)
  free  energy   TOTEN  =       -32.53347772 eV

  energy  without entropy=      -32.53347772  energy(sigma->0) =      -32.53347772
  enthalpy is  TOTEN    =       -21.95305719 eV   P V=       10.58042053

 d Force =-0.2970124E-61[-0.513E-61,-0.813E-62]  d Energy = 0.5731320E-02-0.573E-02
 d Force = 0.1586206E-45[-0.373E-45, 0.691E-45]  d Ewald  =-0.3146710E+01 0.315E+01

 reached required accuracy - stopping structural energy minimisation
 writing wavefunctions
 BZINTS: Fermi energy:    3.325191;   32.000000 electrons
         Band energy:-0.713364E+02;  BLOECHL correction:    0.000000