 vasp.6.4.3 19Mar24 (build Aug 29 2024 15:27:20) complex

 executed on             LinuxIFC date 2025.03.19  10:26:28

 INCAR:
   SYSTEM = GaAs
   PREC = Normal
   ENCUT = 400
   ISMEAR = -5
   SIGMA = 0.1
   IBRION = 2
   POTIM = 0.1
   NFREE = 2
   NSW = 100
   ISIF = 3
   PSTRESS = 200

 POTCAR:    PAW_PBE As 22Sep2009
 POTCAR:    PAW_PBE Ga 08Apr2002
|           W    W    AA    RRRRR   N    N  II  N    N   GGGG   !!!           |
|           W    W   A  A   R    R  NN   N  II  NN   N  G    G  !!!           |
|           W    W  A    A  R    R  N N  N  II  N N  N  G       !!!           |
|           W WW W  AAAAAA  RRRRR   N  N N  II  N  N N  G  GGG   !            |
|           WW  WW  A    A  R   R   N   NN  II  N   NN  G    G                |
|           W    W  A    A  R    R  N    N  II  N    N   GGGG   !!!           |
|     For optimal performance we recommend to set                             |
|       NCORE = 2 up to number-of-cores-per-socket                            |
|     This setting can greatly improve the performance of VASP for DFT.       |
|     The default, NCORE=1 might be grossly inefficient on modern             |
|     multi-core architectures or massively parallel machines. Do your        |
|     Unfortunately you need to use the default for GW and RPA                |
|     calculations (for HF NCORE is supported but not extensively tested      |
|     yet).                                                                   |

 POTCAR:    PAW_PBE As 22Sep2009
   VRHFIN =As: s2p3

   TITEL  = PAW_PBE As 22Sep2009
   POMASS =   74.922; ZVAL   =    5.000    mass and valenz
   ENMAX  =  208.702; ENMIN  =  156.526 eV

 POTCAR:    PAW_PBE Ga 08Apr2002
   VRHFIN =Ga: s2p1

   TITEL  = PAW_PBE Ga 08Apr2002
   POMASS =   69.723; ZVAL   =    3.000    mass and valenz
   ENMAX  =  134.678; ENMIN  =  101.009 eV

  PAW_PBE As 22Sep2009                  :
  PAW_PBE Ga 08Apr2002                  :

 POSCAR: cubic gallium arsenide
  positions in direct lattice
  velocities in cartesian coordinates

 exchange-correlation table for PE
   RHO(1)=    0.500       N(1)  =     2000
   RHO(2)=  100.500       N(2)  =     4000

 ion  position               nearest neighbor table
   1  0.000  0.000  0.000-   5 2.38   6 2.38   7 2.38   8 2.38
   2  0.500  0.500  0.000-   5 2.38   6 2.38   7 2.38   8 2.38
   3  0.500  0.000  0.500-   5 2.38   6 2.38   7 2.38   8 2.38
   4  0.000  0.500  0.500-   5 2.38   6 2.38   7 2.38   8 2.38
   5  0.250  0.250  0.250-   1 2.38   2 2.38   3 2.38   4 2.38
   6  0.750  0.250  0.750-   1 2.38   2 2.38   3 2.38   4 2.38
   7  0.750  0.750  0.250-   1 2.38   2 2.38   3 2.38   4 2.38
   8  0.250  0.750  0.750-   1 2.38   2 2.38   3 2.38   4 2.38

  LATTYP: Found a simple cubic cell.
 ALAT       =     5.5026400603

  Lattice vectors:

 A1 = (   5.5026400603,   0.0000000000,   0.0000000000)
 A2 = (   0.0000000000,   5.5026400603,   0.0000000000)
 A3 = (   0.0000000000,   0.0000000000,   5.5026400603)

Analysis of symmetry for initial positions (statically):
 Subroutine PRICEL returns following result:

  LATTYP: Found a face centered cubic cell.
 ALAT       =     5.5026400603

[...]

   4 primitive cells build up your supercell.

 Routine SETGRP: Setting up the symmetry group for a
 simple cubic supercell.

 Subroutine GETGRP returns: Found 24 space group operations
 (whereof 24 operations were pure point group operations)
 out of a pool of 48 trial point group operations.

The static configuration has the point symmetry T_d .

Analysis of symmetry for dynamics (positions and initial velocities):
 Subroutine PRICEL returns following result:

  LATTYP: Found a face centered cubic cell.
 ALAT       =     5.5026400603

  Lattice vectors:

 A1 = (   2.7513200301,  -2.7513200301,   0.0000000000)
 A2 = (   2.7513200301,   0.0000000000,   2.7513200301)
 A3 = (   0.0000000000,  -2.7513200301,   2.7513200301)

   4 primitive cells build up your supercell.

 Routine SETGRP: Setting up the symmetry group for a
 simple cubic supercell.

 Subroutine GETGRP returns: Found 24 space group operations
 (whereof 24 operations were pure point group operations)
 out of a pool of 48 trial point group operations.

The dynamic configuration has the point symmetry T_d .

 Subroutine INISYM returns: Found 24 space group operations
 (whereof 24 operations are pure point group operations),
 and found     4 'primitive' translations

                                     Primitive cell

  volume of cell :      41.6537

  direct lattice vectors                    reciprocal lattice vectors
     2.751320030 -2.751320030  0.000000000     0.181730949 -0.181730949 -0.181730949
     2.751320030  0.000000000  2.751320030     0.181730949  0.181730949  0.181730949
     0.000000000 -2.751320030  2.751320030    -0.181730949 -0.181730949  0.181730949

  length of vectors
     3.890954101  3.890954101  3.890954101     0.314767237  0.314767237  0.314767237

  position of ions in fractional coordinates (direct lattice)
     0.000000000  0.000000000  0.000000000
     0.750000000  0.750000000  0.750000000

  ion indices of the primitive-cell ions
   primitive index   ion index
                 1           1
                 2           5

 KPOINTS: Automatic mesh

Automatic generation of k-mesh.
 Grid dimensions read from file:
 generate k-points for:    5    5    5

 Generating k-lattice:

  Cartesian coordinates                     Fractional coordinates (reciprocal lattice)
     0.036346190  0.000000000  0.000000000     0.200000000  0.000000000  0.000000000
     0.000000000  0.036346190  0.000000000     0.000000000  0.200000000  0.000000000
     0.000000000  0.000000000  0.036346190     0.000000000  0.000000000  0.200000000

  Length of vectors
     0.036346190  0.036346190  0.036346190

  Shift w.r.t. Gamma in fractional coordinates (k-lattice)
     0.000000000  0.000000000  0.000000000

 TETIRR: Found     57 inequivalent tetrahedra from      750

 Subroutine IBZKPT returns following result:

 Found     10 irreducible k-points:

 Following reciprocal coordinates:
            Coordinates               Weight
  0.000000  0.000000  0.000000      1.000000
  0.200000  0.000000  0.000000      6.000000
  0.400000  0.000000  0.000000      6.000000
  0.200000  0.200000  0.000000     12.000000
  0.400000  0.200000  0.000000     24.000000
  0.400000  0.400000  0.000000     12.000000
  0.200000  0.200000  0.200000      8.000000
  0.400000  0.200000  0.200000     24.000000
  0.400000  0.400000  0.200000     24.000000
  0.400000  0.400000  0.400000      8.000000

 Following cartesian coordinates:
            Coordinates               Weight
  0.000000  0.000000  0.000000      1.000000
  0.163558  0.000000  0.000000      6.000000
  0.327116  0.000000  0.000000      6.000000
  0.163558  0.163558  0.000000     12.000000
  0.327116  0.163558  0.000000     24.000000
  0.327116  0.327116  0.000000     12.000000
  0.163558  0.163558  0.163558      8.000000
  0.327116  0.163558  0.163558     24.000000
  0.327116  0.327116  0.163558     24.000000
  0.327116  0.327116  0.327116      8.000000

 SYSTEM =  GaAs
 POSCAR =  cubic gallium arsenide

 Startparameter for this run:
   NWRITE =      2    write-flag & timer
   PREC   = normal    normal or accurate (medium, high low for compatibility)
   ISTART =      1    job   : 0-new  1-cont  2-samecut
   ICHARG =      0    charge: 1-file 2-atom 10-const
   ISPIN  =      1    spin polarized calculation?
   LNONCOLLINEAR =      F non collinear calculations
   LSORBIT =      F    spin-orbit coupling
   INIWAV =      1    electr: 0-lowe 1-rand  2-diag
   LASPH  =      F    aspherical Exc in radial PAW
 Electronic Relaxation 1
   ENCUT  =  400.0 eV  29.40 Ry    5.42 a.u.   8.97  8.97  8.97*2*pi/ulx,y,z
   ENINI  =  400.0     initial cutoff
   ENAUG  =  462.8 eV  augmentation charge cutoff
   NELM   =     60;   NELMIN=  2; NELMDL=  0     # of ELM steps
   EDIFF  = 0.1E-03   stopping-criterion for ELM
   LREAL  =      F    real-space projection
   NLSPLINE    = F    spline interpolate recip. space projectors
   LCOMPAT=      F    compatible to vasp.4.4
   GGA_COMPAT  = T    GGA compatible to vasp.4.4-vasp.4.6
   LMAXPAW     = -100 max onsite density
   LMAXMIX     =    2 max onsite mixed and CHGCAR
   VOSKOWN=      0    Vosko Wilk Nusair interpolation
   ROPT   =    0.00000   0.00000
 Ionic relaxation
   EDIFFG = 0.1E-02   stopping-criterion for IOM
   NSW    =    100    number of steps for IOM
   NBLOCK =      1;   KBLOCK =    100    inner block; outer block
   IBRION =      2    ionic relax: 0-MD 1-quasi-New 2-CG
   NFREE  =      2    steps in history (QN), initial steepest desc. (CG)
   ISIF   =      3    stress and relaxation
   IWAVPR =     11    prediction:  0-non 1-charg 2-wave 3-comb
   ISYM   =      2    0-nonsym 1-usesym 2-fastsym
   LCORR  =      T    Harris-Foulkes like correction to forces

   POTIM  = 0.1000    time-step for ionic-motion
   TEIN   =    0.0    initial temperature
   TEBEG  =    0.0;   TEEND  =   0.0 temperature during run
   SMASS  =  -3.00    Nose mass-parameter (am)
   estimated Nose-frequenzy (Omega)   =  0.10E-29 period in steps = 0.63E+47 mass=  -0.692E-27a.u.
   SCALEE = 1.0000    scale energy and forces
   NPACO  =    256;   APACO  = 10.0  distance and # of slots for P.C.
   PSTRESS=  200.0 pullay stress

  Mass of Ions in am
   POMASS =  74.92 69.72
  Ionic Valenz
   ZVAL   =   5.00  3.00
  Atomic Wigner-Seitz radii
  virtual crystal weights
   VCA    =   1.00  1.00
   NELECT =      32.0000    total number of electrons
   NUPDOWN=      -1.0000    fix difference up-down

 DOS related values:
   EMIN   =  10.00;   EMAX   =-10.00  energy-range for DOS
   EFERMI =   0.00;   METHOD = LEGACY
   ISMEAR =    -5;   SIGMA  =   0.10  broadening in eV -4-tet -1-fermi 0-gaus

 Electronic relaxation 2 (details)
   IALGO  =     38    algorithm
   LDIAG  =      T    sub-space diagonalisation (order eigenvalues)
   LSUBROT=      F    optimize rotation matrix (better conditioning)
   TURBO    =      0    0=normal 1=particle mesh
   IRESTART =      0    0=no restart 2=restart with 2 vectors
   NREBOOT  =      0    no. of reboots
   NMIN     =      0    reboot dimension
   EREF     =   0.00    reference energy to select bands
   IMIX   =      4    mixing-type and parameters
     AMIX     =   0.40;   BMIX     =  1.00
     AMIX_MAG =   1.60;   BMIX_MAG =  1.00
     AMIN     =   0.10
     WC   =   100.;   INIMIX=   1;  MIXPRE=   1;  MAXMIX= -45

 Intra band minimization:
   WEIMIN = 0.0010     energy-eigenvalue tresh-hold
   EBREAK =  0.10E-05  absolut break condition
   DEPER  =   0.30     relativ break condition

   TIME   =   0.40     timestep for ELM

  volume/ion in A,a.u.               =      20.83       140.55
  Fermi-wavevector in a.u.,A,eV,Ry     =   0.944540  1.784922 12.138518  0.892156
  Thomas-Fermi vector in A             =   2.072355

 Write flags
   LWAVE        =      T    write WAVECAR
   LDOWNSAMPLE  =      F    k-point downsampling of WAVECAR
   LCHARG       =      T    write CHGCAR
   LVTOT        =      F    write LOCPOT, total local potential
   LVHAR        =      F    write LOCPOT, Hartree potential only
[...]
 k-point     3 :   0.4000 0.0000 0.0000  plane waves:    3010
 k-point     4 :   0.2000 0.2000 0.0000  plane waves:    3017
 k-point     5 :   0.4000 0.2000 0.0000  plane waves:    3024
 k-point     6 :   0.4000 0.4000 0.0000  plane waves:    3042
 k-point     7 :   0.2000 0.2000 0.2000  plane waves:    3043
 k-point     8 :   0.4000 0.2000 0.2000  plane waves:    3025
 k-point     9 :   0.4000 0.4000 0.2000  plane waves:    3034
 k-point    10 :   0.4000 0.4000 0.4000  plane waves:    3034

 maximum and minimum number of plane-waves per node :      3043     2969

 maximum number of plane-waves:      3043
 maximum index in each direction:
   IXMAX=    8   IYMAX=    8   IZMAX=    8
   IXMIN=   -9   IYMIN=   -9   IZMIN=   -9

 serial   3D FFT for wavefunctions
 parallel 3D FFT for charge:
    minimum data exchange during FFTs selected (reduces bandwidth)

 Broyden mixing: mesh for mixing (old mesh)
   NGX = 17   NGY = 17   NGZ = 17
  (NGX  = 56   NGY  = 56   NGZ  = 56)
  gives a total of   4913 points

 charge density for first step will be calculated from the start-wavefunctions

 Maximum index for augmentation-charges         1159 (set IRDMAX)

 initial charge from wavefunction
 First call to EWALD:  gamma=   0.322
 Maximum number of real-space cells 3x 3x 3
 Maximum number of reciprocal cells 3x 3x 3

--------------------------------------- Ionic step        1  -------------------------------------------

--------------------------------------- Iteration      1(   1)  ---------------------------------------

 BZINTS: Fermi energy:    3.549217;   32.000000 electrons
         Band energy:-0.670017E+02;  BLOECHL correction:    0.000000

 eigenvalue-minimisations  :   544
 total energy-change (2. order) :-0.3234341E+02  (-0.2607694E-01)
 number of electron      32.0000029 magnetization
 augmentation part       -5.1869393 magnetization

 Broyden mixing:
  rms(total) = 0.82528E-01    rms(broyden)= 0.82528E-01
  rms(prec ) = 0.11046E+00
  weight for this iteration     100.00

 Free energy of the ion-electron system (eV)
  alpha Z        PSCENC =        82.12872199
  Ewald energy   TEWEN  =      -941.78307081
  -Hartree energ DENC   =       -80.28717984
  -exchange      EXHF   =         0.00000000
  -V(xc)+E(xc)   XCENC  =      -120.08222369
  PAW double counting   =      2215.69655713    -2037.23112734
  entropy T*S    EENTRO =         0.00000000
  eigenvalues    EBANDS =       -67.00172465
  atomic energy  EATOM  =       916.21663293
  Solvation  Ediel_sol  =         0.00000000
  free energy    TOTEN  =       -32.34341428 eV

  energy without entropy =      -32.34341428  energy(sigma->0) =      -32.34341428

[...]

 eigenvalue-minimisations  :   504
 total energy-change (2. order) : 0.5956857E-02  (-0.1400261E-02)
 number of electron      32.0000029 magnetization
 augmentation part       -5.1878748 magnetization

[...]

 eigenvalues of (default mixing * dielectric matrix)
  average eigenvalue GAMMA=   2.3296
  2.3296

[...]

 average (electrostatic) potential at core
  the test charge radii are     1.0621  1.2767
  (the norm of the test charge is              1.0000)
       1 -50.8560       2 -50.8560       3 -50.8560       4 -50.8560       5 -13.9815
       6 -13.9815       7 -13.9815       8 -13.9815

 E-fermi :   3.4535     XC(G=0):  -9.5218     alpha+bet : -9.2840

 val. band max:        3.4526117233   @ k =   0.0000   0.0000   0.0000
 cond. band min:       4.6697868547   @ k =   0.0000   0.0000   0.0000
 fundamental gap:      1.2171751314
 Fermi energy:         3.4534521549

 k-point     1 :       0.0000    0.0000    0.0000
  band No.  band energies     occupation
      1      -9.8680      2.00000
      2      -7.1708      2.00000
      3      -7.1708      2.00000
      4      -7.1708      2.00000
      5      -3.7289      2.00000
      6      -3.7289      2.00000
      7      -3.7289      2.00000
      8       0.4872      2.00000
      9       0.4872      2.00000
     10       0.4872      2.00000
     11       0.4872      2.00000
     12       0.4872      2.00000
     13       0.4872      2.00000
     14       3.4526      2.00000
     15       3.4526      2.00000
     16       3.4526      2.00000
     17       4.6698      0.00000
     18       4.7540      0.00000
     19       4.7540      0.00000
     20       4.7540      0.00000
     21       5.0756      0.00000
     22       5.0756      0.00000
     23       5.0756      0.00000
     24       7.2373      0.00000

[...]

 soft charge-density along one line, spin component           1
         0         1         2         3         4         5         6         7         8         9
 total charge-density along one line

------------------------ aborting loop because EDIFF is reached ----------------------------------------

  FORCE on cell =-STRESS in cart. coord.  units (eV):
  Direction    XX          YY          ZZ          XY          YZ          ZX
  Alpha Z    82.12872    82.12872    82.12872
  Ewald    -313.92819  -313.92819  -313.92819     0.00000    -0.00000    -0.00000
  Hartree    26.30767    26.30767    26.30767    -0.00000    -0.00000    -0.00000
  E(xc)    -123.07304  -123.07304  -123.07304    -0.00000    -0.00000     0.00000
  Local    -118.55022  -118.55022  -118.55022    -0.00000     0.00000     0.00000
  n-local   184.18704   186.19674   183.36093    -2.01057    -1.17504    -0.96219
  augment     8.05837     8.05837     8.05837    -0.00000     0.00000     0.00000
  Kinetic   260.17524   271.40313   268.99858    -4.83482    -4.62086    -3.06428
  Fock        0.00000     0.00000     0.00000     0.00000     0.00000     0.00000
  Total      12.38387    12.38387    12.38387    -0.00000    -0.00000    -0.00000
  in kB     119.08408   119.08408   119.08408    -0.00000    -0.00000    -0.00000

 VOLUME and BASIS-vectors are now :
  energy-cutoff  :      400.00
  volume of cell :      166.61
      direct lattice vectors                 reciprocal lattice vectors
     5.502640060  0.000000000  0.000000000     0.181730949  0.000000000  0.000000000
     0.000000000  5.502640060  0.000000000     0.000000000  0.181730949  0.000000000
     0.000000000  0.000000000  5.502640060     0.000000000  0.000000000  0.181730949

[...]

 FORCES acting on ions
    electron-ion (+dipol)            ewald-force                    non-local-force                 convergence-correction
   0.323E-14 -.309E-14 0.464E-14   -.355E-14 0.000E+00 0.000E+00   -.471E-17 0.220E-16 0.267E-16   -.748E-15 0.475E-14 0.509E-15
   0.123E-13 0.287E-12 0.244E-12   -.355E-14 0.355E-14 0.000E+00   0.239E-16 -.325E-16 -.157E-16   -.433E-14 -.210E-14 0.194E-15
   0.968E-14 -.316E-14 0.604E-12   -.355E-14 0.000E+00 0.000E+00   -.970E-17 0.786E-17 0.126E-16   -.377E-14 0.484E-14 -.134E-14
   0.775E-14 0.144E-13 0.120E-13   -.355E-14 0.355E-14 0.000E+00   0.242E-16 0.952E-17 -.226E-16   -.491E-15 -.199E-14 -.125E-14
   -.775E-14 0.485E-13 -.217E-13   0.366E-14 -.317E-14 0.165E-16   0.420E-17 0.267E-17 -.212E-19   0.597E-15 -.187E-14 0.166E-14
   0.517E-14 -.128E-13 0.648E-13   0.323E-14 -.316E-14 0.186E-15   0.489E-17 -.526E-18 0.371E-17   0.385E-15 -.192E-14 0.203E-14
   -.258E-14 -.128E-12 0.144E-12   0.419E-14 -.391E-14 -.181E-15   0.289E-17 0.210E-18 -.423E-17   0.490E-15 -.499E-15 0.173E-14
   -.904E-14 0.300E-13 0.442E-14   0.304E-14 -.390E-14 -.111E-16   0.195E-17 0.180E-18 -.102E-17   0.579E-15 -.771E-15 0.212E-14
   0.187E-13 0.233E-12 0.106E-11   -.995E-16 -.703E-14 0.108E-16   0.476E-16 0.942E-17 -.522E-18   -.729E-14 0.440E-15 0.566E-14

 POSITION                                       TOTAL-FORCE (eV/Angst)
      0.00000      0.00000      0.00000         0.000000      0.000000     -0.000000
      2.75132      2.75132      0.00000        -0.000000     -0.000000     -0.000000
      2.75132      0.00000      2.75132         0.000000      0.000000     -0.000000
      0.00000      2.75132      2.75132        -0.000000     -0.000000      0.000000
      1.37566      1.37566      1.37566         0.000000     -0.000000      0.000000
      4.12698      1.37566      4.12698         0.000000      0.000000      0.000000
      4.12698      4.12698      1.37566         0.000000      0.000000      0.000000
      1.37566      4.12698      4.12698         0.000000     -0.000000      0.000000
    total drift:                                0.000000      0.000000      0.000000

  FREE ENERGIE OF THE ION-ELECTRON SYSTEM (eV)
  free  energy   TOTEN  =       -32.33536326 eV

  energy  without entropy=      -32.33536326  energy(sigma->0) =      -32.33536326
  enthalpy is  TOTEN    =       -11.53682899 eV   P V=       20.79853427

[...]

 d Force = 0.7950745E-62[-0.300E-61, 0.459E-61]  d Energy = 0.1974133E+00-0.197E+00
 d Force = 0.2254990E-46[ 0.902E-46,-0.451E-46]  d Ewald  = 0.9655812E+01-0.966E+01

 Steepest descent step on ions:
 trial-energy change:   -0.197413  1 .order   -0.195462   -0.256192   -0.134732
  (g-gl).g = 0.256E+00      g.g   = 0.256E+00  gl.gl    = 0.000E+00
 g(Force)  = 0.501E-60   g(Stress)= 0.256E+00 ortho     = 0.000E+00
 gamma     =   0.00000
 trial     =   1.00000
 opt step  =   1.93491  (harmonic =   2.10927) maximal distance =0.00000000
 next E    =   -11.798818   (d E  =  -0.26199)

--------------------------------------- Ionic step        3  -------------------------------------------

[...]

 Broyden mixing:
  rms(total) = 0.52938E-02    rms(broyden)= 0.52938E-02
  rms(prec ) = 0.56854E-02
  weight for this iteration     100.00

 eigenvalues of (default mixing * dielectric matrix)
  average eigenvalue GAMMA=   1.4868
  2.1050  1.5667  1.5667  0.7090

[...]

--------------------------------------- Iteration      3(   6)  ---------------------------------------

 BZINTS: Fermi energy:    4.056848;   32.000000 electrons
         Band energy:-0.582586E+02;  BLOECHL correction:    0.000000

 eigenvalue-minimisations  :   240
 total energy-change (2. order) : 0.1984759E-05  (-0.3605334E-05)
 number of electron      31.9999995 magnetization
 augmentation part       -5.2319995 magnetization

 Free energy of the ion-electron system (eV)
  alpha Z        PSCENC =        87.16335773
  Ewald energy   TEWEN  =      -960.64702428
  -Hartree energ DENC   =       -74.79953900
  -exchange      EXHF   =         0.00000000
  -V(xc)+E(xc)   XCENC  =      -119.29133000
  PAW double counting   =      2564.00790956    -2385.79422989
  entropy T*S    EENTRO =         0.00000000
  eigenvalues    EBANDS =       -58.25856220
  atomic energy  EATOM  =       916.21663293
  Solvation  Ediel_sol  =         0.00000000
  free energy    TOTEN  =       -31.40278515 eV

  energy without entropy =      -31.40278515  energy(sigma->0) =      -31.40278515

 average (electrostatic) potential at core
  the test charge radii are     1.0621  1.2767
  (the norm of the test charge is              1.0000)
       1 -50.3845       2 -50.3845       3 -50.3845       4 -50.3845       5 -13.4885
       6 -13.4885       7 -13.4885       8 -13.4885

 E-fermi :   4.0568     XC(G=0):  -9.7733     alpha+bet : -9.8531

 val. band max:        4.0136877645   @ k =   0.0000   0.0000   0.0000
 cond. band min:       5.1743880597   @ k =   0.0000   0.0000   0.0000
 fundamental gap:      1.1607002952
 Fermi energy:         4.0568478403

[...]

 k-point    10 :       0.4000    0.4000    0.4000
  band No.  band energies     occupation
      1      -8.0890      2.00000
      2      -7.7051      2.00000
      3      -7.7051      2.00000
      4      -7.7051      2.00000
      5      -3.3021      2.00000
      6      -3.3021      2.00000
      7      -3.3021      2.00000
      8      -2.8385      2.00000
      9       1.7950      2.00000
     10       1.7950      2.00000
     11       1.7950      2.00000
     12       2.3898      2.00000
     13       2.3898      2.00000
     14       2.3898      2.00000
     15       2.7359      2.00000
     16       2.7359      2.00000
     17       5.5696      0.00000
     18       6.3037      0.00000
     19       6.3037      0.00000
     20       6.3037      0.00000
     21       8.3961      0.00000
     22       8.3961      0.00000
     23       8.3961      0.00000
     24       8.7599      0.00000

 soft charge-density along one line, spin component           1
         0         1         2         3         4         5         6         7         8         9
 total charge-density along one line

------------------------ aborting loop because EDIFF is reached ----------------------------------------

  FORCE on cell =-STRESS in cart. coord.  units (eV):
  Direction    XX          YY          ZZ          XY          YZ          ZX
  Alpha Z    87.16336    87.16336    87.16336
  Ewald    -320.21618  -320.21618  -320.21618     0.00000     0.00000     0.00000
  Hartree    24.93592    24.93592    24.93592    -0.00000    -0.00000    -0.00000
  E(xc)    -124.86772  -124.86772  -124.86772    -0.00000    -0.00000     0.00000
  Local    -117.86176  -117.86176  -117.86176    -0.00000    -0.00000     0.00000
  n-local   189.27429   191.18155   188.26888    -2.03921    -1.17022    -0.96536
  augment     8.46698     8.46698     8.46698     0.00000     0.00000     0.00000
  Kinetic   265.01156   276.41406   274.41853    -4.80507    -4.68262    -3.06254
  Fock        0.00000     0.00000     0.00000     0.00000     0.00000     0.00000
  Total      19.14355    19.14355    19.14355    -0.00000     0.00000    -0.00000
  in kB     195.37031   195.37031   195.37031    -0.00000     0.00000    -0.00000

 VOLUME and BASIS-vectors are now :
  energy-cutoff  :      400.00
  volume of cell :      156.99
      direct lattice vectors                 reciprocal lattice vectors
     5.394586276  0.000000000 -0.000000000     0.185371027  0.000000000 -0.000000000
    -0.000000000  5.394586276 -0.000000000    -0.000000000  0.185371027  0.000000000
     0.000000000 -0.000000000  5.394586276     0.000000000  0.000000000  0.185371027

  length of vectors
     5.394586276  5.394586276  5.394586276     0.185371027  0.185371027  0.185371027

 FORCES acting on ions
    electron-ion (+dipol)            ewald-force                    non-local-force                 convergence-correction
   0.790E-14 -.102E-13 0.449E-14   0.355E-14 -.355E-14 -.355E-14   -.832E-17 -.806E-17 -.111E-16   -.136E-13 0.299E-13 -.331E-14
   0.119E-13 0.289E-12 0.237E-12   0.355E-14 0.355E-14 -.355E-14   -.388E-16 0.200E-16 -.244E-16   0.961E-14 -.227E-13 0.407E-14
   0.856E-14 -.101E-13 0.587E-12   0.355E-14 -.355E-14 -.355E-14   -.153E-16 0.196E-16 -.179E-16   0.926E-14 0.589E-14 -.156E-13
   0.158E-13 0.171E-13 0.118E-13   0.355E-14 0.355E-14 -.355E-14   -.129E-16 0.196E-16 -.174E-16   -.125E-13 -.747E-14 0.864E-15
   0.211E-13 0.447E-13 -.197E-13   -.334E-14 -.221E-15 0.328E-14   0.307E-17 0.382E-17 0.115E-17   -.587E-14 -.130E-14 -.439E-14
   0.158E-13 -.872E-14 0.594E-13   -.399E-14 -.235E-15 0.201E-15   -.325E-18 0.122E-17 0.247E-17   0.958E-14 0.467E-15 0.944E-14
   0.211E-13 -.119E-12 0.147E-12   -.273E-14 0.285E-15 0.338E-14   0.215E-18 0.463E-17 -.379E-17   0.227E-14 0.159E-14 0.408E-14
   0.184E-13 0.296E-13 -.302E-16   -.413E-14 0.271E-15 0.306E-15   -.142E-17 -.226E-17 -.712E-19   -.937E-14 -.448E-15 0.481E-15
   0.121E-12 0.232E-12 0.103E-11   0.105E-16 0.101E-15 -.704E-14   -.738E-16 0.586E-16 -.710E-16   -.106E-13 0.589E-14 -.440E-14

 POSITION                                       TOTAL-FORCE (eV/Angst)
      0.00000      0.00000     -0.00000        -0.000000     -0.000000     -0.000000
      2.69729      2.69729     -0.00000         0.000000      0.000000      0.000000
      2.69729     -0.00000      2.69729        -0.000000     -0.000000      0.000000
      0.00000      2.69729      2.69729         0.000000      0.000000     -0.000000
      1.34865      1.34865      1.34865        -0.000000     -0.000000      0.000000
      4.04594      1.34865      4.04594        -0.000000      0.000000     -0.000000
      4.04594      4.04594      1.34865         0.000000      0.000000     -0.000000
      1.34865      4.04594      4.04594        -0.000000     -0.000000     -0.000000
    total drift:                                0.000000      0.000000      0.000000

  FREE ENERGIE OF THE ION-ELECTRON SYSTEM (eV)
  free  energy   TOTEN  =       -31.40278515 eV

  energy  without entropy=      -31.40278515  energy(sigma->0) =      -31.40278515
  enthalpy is  TOTEN    =       -11.80559336 eV   P V=       19.59719179

 d Force =-0.3915019E-61[-0.502E-61,-0.281E-61]  d Energy = 0.7135103E-01-0.714E-01
 d Force = 0.2659008E-46[-0.312E-46, 0.844E-46]  d Ewald  = 0.9208142E+01-0.921E+01

 reached required accuracy - stopping structural energy minimisation
 writing wavefunctions
 BZINTS: Fermi energy:    4.056848;   32.000000 electrons
         Band energy:-0.582586E+02;  BLOECHL correction:    0.000000