 vasp.6.4.3 19Mar24 (build Aug 29 2024 15:27:20) complex

 executed on             LinuxIFC date 2025.03.19  10:34:00

 INCAR:
   SYSTEM = GaAs
   PREC = Normal
   ENCUT = 500
   ISMEAR = -5
   SIGMA = 0.1
   IBRION = 2
   LOPTICS = .TRUE.

 POTCAR:    PAW_PBE As 22Sep2009
 POTCAR:    PAW_PBE Ga 08Apr2002
|           W    W    AA    RRRRR   N    N  II  N    N   GGGG   !!!           |
|           W    W   A  A   R    R  NN   N  II  NN   N  G    G  !!!           |
|           W    W  A    A  R    R  N N  N  II  N N  N  G       !!!           |
|           W WW W  AAAAAA  RRRRR   N  N N  II  N  N N  G  GGG   !            |
|           WW  WW  A    A  R   R   N   NN  II  N   NN  G    G                |
|           W    W  A    A  R    R  N    N  II  N    N   GGGG   !!!           |
|     For optimal performance we recommend to set                             |
|       NCORE = 2 up to number-of-cores-per-socket                            |
|     This setting can greatly improve the performance of VASP for DFT.       |
|     The default, NCORE=1 might be grossly inefficient on modern             |
|     multi-core architectures or massively parallel machines. Do your        |
|     Unfortunately you need to use the default for GW and RPA                |
|     calculations (for HF NCORE is supported but not extensively tested      |
|     yet).                                                                   |

 POTCAR:    PAW_PBE As 22Sep2009
   VRHFIN =As: s2p3

   TITEL  = PAW_PBE As 22Sep2009
   POMASS =   74.922; ZVAL   =    5.000    mass and valenz
   ENMAX  =  208.702; ENMIN  =  156.526 eV

 POTCAR:    PAW_PBE Ga 08Apr2002
   VRHFIN =Ga: s2p1

   TITEL  = PAW_PBE Ga 08Apr2002
   POMASS =   69.723; ZVAL   =    3.000    mass and valenz
   ENMAX  =  134.678; ENMIN  =  101.009 eV

  PAW_PBE As 22Sep2009                  :
  PAW_PBE Ga 08Apr2002                  :

 POSCAR: cubic gallium arsenide
  positions in direct lattice
  velocities in cartesian coordinates

 exchange-correlation table for PE
   RHO(1)=    0.500       N(1)  =     2000
   RHO(2)=  100.500       N(2)  =     4000

 ion  position               nearest neighbor table
   1  0.000  0.000  0.000-   5 2.44   6 2.44   7 2.44   8 2.44
   2  0.500  0.500  0.000-   5 2.44   6 2.44   7 2.44   8 2.44
   3  0.500  0.000  0.500-   5 2.44   6 2.44   7 2.44   8 2.44
   4  0.000  0.500  0.500-   5 2.44   6 2.44   7 2.44   8 2.44
   5  0.250  0.250  0.250-   1 2.44   2 2.44   3 2.44   4 2.44
   6  0.750  0.250  0.750-   1 2.44   2 2.44   3 2.44   4 2.44
   7  0.750  0.750  0.250-   1 2.44   2 2.44   3 2.44   4 2.44
   8  0.250  0.750  0.750-   1 2.44   2 2.44   3 2.44   4 2.44

  LATTYP: Found a simple cubic cell.
 ALAT       =     5.6336071344

  Lattice vectors:

 A1 = (   5.6336071344,   0.0000000000,   0.0000000000)
 A2 = (   0.0000000000,   5.6336071344,   0.0000000000)
 A3 = (   0.0000000000,   0.0000000000,   5.6336071344)

Analysis of symmetry for initial positions (statically):
 Subroutine PRICEL returns following result:

  LATTYP: Found a face centered cubic cell.
 ALAT       =     5.6336071344

[...]

   4 primitive cells build up your supercell.

 Routine SETGRP: Setting up the symmetry group for a
 simple cubic supercell.

 Subroutine GETGRP returns: Found 24 space group operations
 (whereof 24 operations were pure point group operations)
 out of a pool of 48 trial point group operations.

The static configuration has the point symmetry T_d .

Analysis of symmetry for dynamics (positions and initial velocities):
 Subroutine PRICEL returns following result:

  LATTYP: Found a face centered cubic cell.
 ALAT       =     5.6336071344

  Lattice vectors:

 A1 = (   2.8168035672,  -2.8168035672,   0.0000000000)
 A2 = (   2.8168035672,   0.0000000000,   2.8168035672)
 A3 = (   0.0000000000,  -2.8168035672,   2.8168035672)

   4 primitive cells build up your supercell.

 Routine SETGRP: Setting up the symmetry group for a
 simple cubic supercell.

 Subroutine GETGRP returns: Found 24 space group operations
 (whereof 24 operations were pure point group operations)
 out of a pool of 48 trial point group operations.

The dynamic configuration has the point symmetry T_d .

 Subroutine INISYM returns: Found 24 space group operations
 (whereof 24 operations are pure point group operations),
 and found     4 'primitive' translations

                                     Primitive cell

  volume of cell :      44.6992

  direct lattice vectors                    reciprocal lattice vectors
     2.816803567 -2.816803567  0.000000000     0.177506165 -0.177506165 -0.177506165
     2.816803567  0.000000000  2.816803567     0.177506165  0.177506165  0.177506165
     0.000000000 -2.816803567  2.816803567    -0.177506165 -0.177506165  0.177506165

  length of vectors
     3.983561807  3.983561807  3.983561807     0.307449697  0.307449697  0.307449697

  position of ions in fractional coordinates (direct lattice)
     0.000000000  0.000000000  0.000000000
     0.750000000  0.750000000  0.750000000

  ion indices of the primitive-cell ions
   primitive index   ion index
                 1           1
                 2           5

 KPOINTS: Automatic mesh

Automatic generation of k-mesh.
 Grid dimensions read from file:
 generate k-points for:    5    5    5

 Generating k-lattice:

  Cartesian coordinates                     Fractional coordinates (reciprocal lattice)
     0.035501233  0.000000000  0.000000000     0.200000000  0.000000000  0.000000000
     0.000000000  0.035501233  0.000000000     0.000000000  0.200000000  0.000000000
     0.000000000  0.000000000  0.035501233     0.000000000  0.000000000  0.200000000

  Length of vectors
     0.035501233  0.035501233  0.035501233

  Shift w.r.t. Gamma in fractional coordinates (k-lattice)
     0.000000000  0.000000000  0.000000000

 TETIRR: Found     57 inequivalent tetrahedra from      750

 Subroutine IBZKPT returns following result:

 Found     10 irreducible k-points:

 Following reciprocal coordinates:
            Coordinates               Weight
  0.000000  0.000000  0.000000      1.000000
  0.200000  0.000000  0.000000      6.000000
  0.400000  0.000000  0.000000      6.000000
  0.200000  0.200000  0.000000     12.000000
  0.400000  0.200000  0.000000     24.000000
  0.400000  0.400000  0.000000     12.000000
  0.200000  0.200000  0.200000      8.000000
  0.400000  0.200000  0.200000     24.000000
  0.400000  0.400000  0.200000     24.000000
  0.400000  0.400000  0.400000      8.000000

 Following cartesian coordinates:
            Coordinates               Weight
  0.000000  0.000000  0.000000      1.000000
  0.159756  0.000000  0.000000      6.000000
  0.319511  0.000000  0.000000      6.000000
  0.159756  0.159756  0.000000     12.000000
  0.319511  0.159756  0.000000     24.000000
  0.319511  0.319511  0.000000     12.000000
  0.159756  0.159756  0.159756      8.000000
  0.319511  0.159756  0.159756     24.000000
  0.319511  0.319511  0.159756     24.000000
  0.319511  0.319511  0.319511      8.000000

 SYSTEM =  GaAs
 POSCAR =  cubic gallium arsenide

 Startparameter for this run:
   NWRITE =      2    write-flag & timer
   PREC   = normal    normal or accurate (medium, high low for compatibility)
   ISTART =      1    job   : 0-new  1-cont  2-samecut
   ICHARG =      0    charge: 1-file 2-atom 10-const
   ISPIN  =      1    spin polarized calculation?
   LNONCOLLINEAR =      F non collinear calculations
   LSORBIT =      F    spin-orbit coupling
   INIWAV =      1    electr: 0-lowe 1-rand  2-diag
   LASPH  =      F    aspherical Exc in radial PAW
 Electronic Relaxation 1
   ENCUT  =  500.0 eV  36.75 Ry    6.06 a.u.  10.27 10.27 10.27*2*pi/ulx,y,z
   ENINI  =  500.0     initial cutoff
   ENAUG  =  462.8 eV  augmentation charge cutoff
   NELM   =     60;   NELMIN=  2; NELMDL=  0     # of ELM steps
   EDIFF  = 0.1E-03   stopping-criterion for ELM
   LREAL  =      F    real-space projection
   NLSPLINE    = F    spline interpolate recip. space projectors
   LCOMPAT=      F    compatible to vasp.4.4
   GGA_COMPAT  = T    GGA compatible to vasp.4.4-vasp.4.6
   LMAXPAW     = -100 max onsite density
   LMAXMIX     =    2 max onsite mixed and CHGCAR
   VOSKOWN=      0    Vosko Wilk Nusair interpolation
   ROPT   =    0.00000   0.00000
 Ionic relaxation
   EDIFFG = 0.1E-02   stopping-criterion for IOM
   NSW    =      0    number of steps for IOM
   NBLOCK =      1;   KBLOCK =      1    inner block; outer block
   IBRION =     -1    ionic relax: 0-MD 1-quasi-New 2-CG
   NFREE  =      1    steps in history (QN), initial steepest desc. (CG)
   ISIF   =      2    stress and relaxation
   IWAVPR =     10    prediction:  0-non 1-charg 2-wave 3-comb
   ISYM   =      2    0-nonsym 1-usesym 2-fastsym
   LCORR  =      T    Harris-Foulkes like correction to forces

   POTIM  = 0.5000    time-step for ionic-motion
   TEIN   =    0.0    initial temperature
   TEBEG  =    0.0;   TEEND  =   0.0 temperature during run
   SMASS  =  -3.00    Nose mass-parameter (am)
   estimated Nose-frequenzy (Omega)   =  0.10E-29 period in steps = 0.13E+47 mass=  -0.725E-27a.u.
   SCALEE = 1.0000    scale energy and forces
   NPACO  =    256;   APACO  = 10.0  distance and # of slots for P.C.
   PSTRESS=    0.0 pullay stress

  Mass of Ions in am
   POMASS =  74.92 69.72
  Ionic Valenz
   ZVAL   =   5.00  3.00
  Atomic Wigner-Seitz radii
  virtual crystal weights
   VCA    =   1.00  1.00
   NELECT =      32.0000    total number of electrons
   NUPDOWN=      -1.0000    fix difference up-down

 DOS related values:
   EMIN   =  10.00;   EMAX   =-10.00  energy-range for DOS
   EFERMI =   0.00;   METHOD = LEGACY
   ISMEAR =    -5;   SIGMA  =   0.10  broadening in eV -4-tet -1-fermi 0-gaus

 Electronic relaxation 2 (details)
   IALGO  =     38    algorithm
   LDIAG  =      T    sub-space diagonalisation (order eigenvalues)
   LSUBROT=      F    optimize rotation matrix (better conditioning)
   TURBO    =      0    0=normal 1=particle mesh
   IRESTART =      0    0=no restart 2=restart with 2 vectors
   NREBOOT  =      0    no. of reboots
   NMIN     =      0    reboot dimension
   EREF     =   0.00    reference energy to select bands
   IMIX   =      4    mixing-type and parameters
     AMIX     =   0.40;   BMIX     =  1.00
     AMIX_MAG =   1.60;   BMIX_MAG =  1.00
     AMIN     =   0.10
     WC   =   100.;   INIMIX=   1;  MIXPRE=   1;  MAXMIX= -45

 Intra band minimization:
   WEIMIN = 0.0000     energy-eigenvalue tresh-hold
   EBREAK =  0.10E-05  absolut break condition
   DEPER  =   0.30     relativ break condition

   TIME   =   0.40     timestep for ELM

  volume/ion in A,a.u.               =      22.35       150.82
  Fermi-wavevector in a.u.,A,eV,Ry     =   0.922582  1.743427 11.580699  0.851157
  Thomas-Fermi vector in A             =   2.048125

 Write flags
   LWAVE        =      T    write WAVECAR
   LDOWNSAMPLE  =      F    k-point downsampling of WAVECAR
   LCHARG       =      T    write CHGCAR
   LVTOT        =      F    write LOCPOT, total local potential
   LVHAR        =      F    write LOCPOT, Hartree potential only
   WRT_POTENTIAL= false  ! write potential to hdf5 file
[...]
    0.754708   15.317151   15.317151   15.317151   -0.000000    0.000000    0.000000
    0.776271   15.399902   15.399902   15.399902   -0.000000    0.000000    0.000000
    0.797834   15.484876   15.484876   15.484876   -0.000000    0.000000    0.000000
    0.819398   15.571807   15.571807   15.571807   -0.000000    0.000000    0.000000
    0.840961   15.660431   15.660431   15.660431   -0.000000    0.000000    0.000000
    0.862524   15.750497   15.750497   15.750497   -0.000000    0.000000    0.000000
    0.884087   15.841759   15.841759   15.841759   -0.000000    0.000000    0.000000
    0.905650   15.933981   15.933981   15.933981   -0.000000    0.000000    0.000000
    0.927213   16.026932   16.026932   16.026932   -0.000000    0.000000    0.000000
    0.948776   16.120389   16.120389   16.120389   -0.000000    0.000000    0.000000
    0.970339   16.214133   16.214133   16.214133   -0.000000    0.000000    0.000000
    0.991902   16.307949   16.307949   16.307949   -0.000000    0.000000    0.000000
    1.013465   16.401625   16.401625   16.401625   -0.000000    0.000000    0.000000
    1.035028   16.494954   16.494954   16.494954   -0.000000    0.000000    0.000000
    1.056592   16.587726   16.587726   16.587726   -0.000000    0.000000    0.000000
    1.078155   16.679737   16.679737   16.679737   -0.000000    0.000000    0.000000
    1.099718   16.770779   16.770779   16.770779   -0.000000    0.000000    0.000000
    1.121281   16.860646   16.860646   16.860646   -0.000000    0.000000    0.000000
    1.142844   16.949129   16.949129   16.949129   -0.000000    0.000000    0.000000
    1.164407   17.036018   17.036018   17.036018   -0.000000    0.000000    0.000000
    1.185970   17.121100   17.121100   17.121100   -0.000000    0.000000    0.000000
    1.207533   17.204157   17.204157   17.204157   -0.000000    0.000000    0.000000
    1.229096   17.284969   17.284969   17.284969   -0.000000    0.000000   -0.000000
    1.250659   17.363309   17.363309   17.363309   -0.000000    0.000000   -0.000000
    1.272222   17.438944   17.438944   17.438944   -0.000000    0.000000   -0.000000
[...]
   21.239646    0.539521    0.539521    0.539521    0.000000   -0.000000   -0.000000
   21.261209    0.540529    0.540529    0.540529    0.000000   -0.000000   -0.000000
   21.282773    0.541534    0.541534    0.541534    0.000000   -0.000000   -0.000000
   21.304336    0.542535    0.542535    0.542535    0.000000   -0.000000   -0.000000
   21.325899    0.543533    0.543533    0.543533    0.000000   -0.000000   -0.000000
   21.347462    0.544527    0.544527    0.544527    0.000000   -0.000000   -0.000000
   21.369025    0.545518    0.545518    0.545518    0.000000   -0.000000   -0.000000
   21.390588    0.546505    0.546505    0.546505    0.000000   -0.000000   -0.000000
   21.412151    0.547489    0.547489    0.547489    0.000000   -0.000000   -0.000000
   21.433714    0.548470    0.548470    0.548470    0.000000   -0.000000   -0.000000
   21.455277    0.549448    0.549448    0.549448    0.000000   -0.000000   -0.000000
   21.476840    0.550422    0.550422    0.550422    0.000000   -0.000000   -0.000000
   21.498403    0.551393    0.551393    0.551393    0.000000   -0.000000   -0.000000
   21.519967    0.552360    0.552360    0.552360    0.000000   -0.000000   -0.000000
   21.541530    0.553325    0.553325    0.553325    0.000000   -0.000000   -0.000000

  frequency dependent IMAGINARY DIELECTRIC FUNCTION (independent particle, no local field effects) current-current
     E(ev)      X         Y         Z        XY        YZ        ZX
    0.000000   97.709469   97.709469   97.709469   -0.000000    0.000000   -0.000000
    0.021563   97.709469   97.709469   97.709469   -0.000000    0.000000   -0.000000
    0.043126   48.869322   48.869322   48.869322   -0.000000    0.000000   -0.000000
    0.064689   32.595778   32.595778   32.595778   -0.000000    0.000000   -0.000000
    0.086252   24.463912   24.463912   24.463912   -0.000000    0.000000   -0.000000
    0.107815   19.588746   19.588746   19.588746   -0.000000    0.000000   -0.000000
    0.129379   16.341962   16.341962   16.341962   -0.000000    0.000000   -0.000000
    0.150942   14.025715   14.025715   14.025715   -0.000000    0.000000   -0.000000
    0.172505   12.291091   12.291091   12.291091   -0.000000    0.000000   -0.000000
    0.194068   10.944253   10.944253   10.944253   -0.000000    0.000000   -0.000000
    0.215631    9.868905    9.868905    9.868905   -0.000000    0.000000   -0.000000
    0.237194    8.991047    8.991047    8.991047   -0.000000    0.000000   -0.000000
    0.258757    8.261350    8.261350    8.261350   -0.000000    0.000000   -0.000000
    0.280320    7.645670    7.645670    7.645670   -0.000000    0.000000   -0.000000
    0.301883    7.119625    7.119625    7.119625   -0.000000    0.000000   -0.000000
    0.323446    6.665341    6.665341    6.665341   -0.000000    0.000000   -0.000000
    0.345009    6.269420    6.269420    6.269420   -0.000000    0.000000   -0.000000
    0.366573    5.921625    5.921625    5.921625   -0.000000    0.000000   -0.000000
    0.388136    5.614001    5.614001    5.614001   -0.000000    0.000000   -0.000000
    0.409699    5.340280    5.340280    5.340280   -0.000000    0.000000   -0.000000
    0.431262    5.095457    5.095457    5.095457   -0.000000    0.000000   -0.000000
    0.452825    4.875495    4.875495    4.875495   -0.000000    0.000000   -0.000000
    0.474388    4.677106    4.677106    4.677106   -0.000000    0.000000   -0.000000
    0.495951    4.497593    4.497593    4.497593   -0.000000    0.000000   -0.000000
    0.517514    4.334730    4.334730    4.334730   -0.000000    0.000000   -0.000000
    0.539077    4.186677    4.186677    4.186677   -0.000000    0.000000   -0.000000
    0.560640    4.051908    4.051908    4.051908   -0.000000    0.000000   -0.000000
    0.582204    3.929166    3.929166    3.929166   -0.000000    0.000000   -0.000000
    0.603767    3.817421    3.817421    3.817421   -0.000000    0.000000   -0.000000
    0.625330    3.715836    3.715836    3.715836   -0.000000    0.000000   -0.000000
    0.646893    3.623732    3.623732    3.623732   -0.000000    0.000000   -0.000000
    0.668456    3.540545    3.540545    3.540545   -0.000000    0.000000   -0.000000
    0.690019    3.465769    3.465769    3.465769   -0.000000    0.000000   -0.000000
    0.711582    3.398908    3.398908    3.398908   -0.000000    0.000000   -0.000000
    0.733145    3.339449    3.339449    3.339449   -0.000000    0.000000   -0.000000
    0.754708    3.286863    3.286863    3.286863   -0.000000    0.000000   -0.000000
    0.776271    3.240613    3.240613    3.240613   -0.000000    0.000000    0.000000
    0.797834    3.200175    3.200175    3.200175   -0.000000    0.000000    0.000000
    0.819398    3.165050    3.165050    3.165050   -0.000000    0.000000    0.000000
    0.840961    3.134771    3.134771    3.134771   -0.000000    0.000000    0.000000
    0.862524    3.108907    3.108907    3.108907   -0.000000    0.000000    0.000000
    0.884087    3.087064    3.087064    3.087064   -0.000000    0.000000    0.000000
    0.905650    3.068889    3.068889    3.068889   -0.000000    0.000000    0.000000
    0.927213    3.054059    3.054059    3.054059   -0.000000    0.000000    0.000000
    0.948776    3.042287    3.042287    3.042287   -0.000000    0.000000    0.000000
    0.970339    3.033316    3.033316    3.033316   -0.000000    0.000000    0.000000
    0.991902    3.026914    3.026914    3.026914   -0.000000    0.000000    0.000000
    1.013465    3.022878    3.022878    3.022878   -0.000000    0.000000    0.000000
    1.035028    3.021027    3.021027    3.021027   -0.000000    0.000000    0.000000
    1.056592    3.021198    3.021198    3.021198   -0.000000    0.000000    0.000000
    1.078155    3.023251    3.023251    3.023251   -0.000000    0.000000   -0.000000
    1.099718    3.027062    3.027062    3.027062   -0.000000    0.000000   -0.000000
    1.121281    3.032522    3.032522    3.032522   -0.000000    0.000000    0.000000
    1.142844    3.039539    3.039539    3.039539    0.000000    0.000000    0.000000
    1.164407    3.048033    3.048033    3.048033    0.000000    0.000000    0.000000
    1.185970    3.057939    3.057939    3.057939    0.000000   -0.000000    0.000000
    1.207533    3.069205    3.069205    3.069205    0.000000   -0.000000    0.000000
    1.229096    3.081789    3.081789    3.081789    0.000000   -0.000000    0.000000
    1.250659    3.095665    3.095665    3.095665   -0.000000   -0.000000    0.000000
    1.272222    3.110817    3.110817    3.110817   -0.000000   -0.000000    0.000000
[...]
   21.239646    0.000329    0.000329    0.000329   -0.000000    0.000000   -0.000000
   21.261209    0.000326    0.000326    0.000326   -0.000000    0.000000   -0.000000
   21.282773    0.000324    0.000324    0.000324   -0.000000    0.000000   -0.000000
   21.304336    0.000322    0.000322    0.000322   -0.000000    0.000000   -0.000000
   21.325899    0.000320    0.000320    0.000320   -0.000000    0.000000   -0.000000
   21.347462    0.000318    0.000318    0.000318   -0.000000    0.000000   -0.000000
   21.369025    0.000316    0.000316    0.000316   -0.000000    0.000000   -0.000000
   21.390588    0.000314    0.000314    0.000314   -0.000000    0.000000   -0.000000
   21.412151    0.000312    0.000312    0.000312   -0.000000    0.000000   -0.000000
   21.433714    0.000310    0.000310    0.000310   -0.000000    0.000000   -0.000000
   21.455277    0.000308    0.000308    0.000308   -0.000000    0.000000   -0.000000
   21.476840    0.000306    0.000306    0.000306   -0.000000    0.000000   -0.000000
   21.498403    0.000304    0.000304    0.000304   -0.000000    0.000000   -0.000000
   21.519967    0.000302    0.000302    0.000302   -0.000000    0.000000   -0.000000
   21.541530    0.000300    0.000300    0.000300   -0.000000    0.000000   -0.000000

  frequency dependent      REAL DIELECTRIC FUNCTION (independent particle, no local field effects) current-current
     E(ev)        X           Y           Z          XY          YZ          ZX
    0.000000   11.488761   11.488761   11.488761   -0.000000    0.000000   -0.000000
    0.021563   11.488761   11.488761   11.488761   -0.000000    0.000000   -0.000000
    0.043126   11.490293   11.490293   11.490293   -0.000000    0.000000   -0.000000
    0.064689   11.492848   11.492848   11.492848   -0.000000    0.000000   -0.000000
    0.086252   11.496429   11.496429   11.496429   -0.000000    0.000000   -0.000000
    0.107815   11.501042   11.501042   11.501042   -0.000000    0.000000   -0.000000
    0.129379   11.506692   11.506692   11.506692   -0.000000    0.000000   -0.000000
    0.150942   11.513386   11.513386   11.513386   -0.000000    0.000000   -0.000000
    0.172505   11.521134   11.521134   11.521134   -0.000000    0.000000   -0.000000
    0.194068   11.529946   11.529946   11.529946   -0.000000    0.000000   -0.000000
    0.215631   11.539833   11.539833   11.539833   -0.000000    0.000000   -0.000000
    0.237194   11.550810   11.550810   11.550810   -0.000000    0.000000   -0.000000
    0.258757   11.562891   11.562891   11.562891   -0.000000    0.000000   -0.000000
    0.280320   11.576095   11.576095   11.576095   -0.000000    0.000000   -0.000000
    0.301883   11.590439   11.590439   11.590439   -0.000000    0.000000   -0.000000
    0.323446   11.605947   11.605947   11.605947   -0.000000    0.000000   -0.000000
    0.345009   11.622640   11.622640   11.622640   -0.000000    0.000000   -0.000000
    0.366573   11.640547   11.640547   11.640547   -0.000000    0.000000   -0.000000
    0.388136   11.659695   11.659695   11.659695   -0.000000    0.000000   -0.000000
    0.409699   11.680117   11.680117   11.680117   -0.000000    0.000000   -0.000000
    0.431262   11.701846   11.701846   11.701846   -0.000000    0.000000   -0.000000
    0.452825   11.724921   11.724921   11.724921   -0.000000    0.000000   -0.000000
    0.474388   11.749383   11.749383   11.749383   -0.000000    0.000000   -0.000000
    0.495951   11.775275   11.775275   11.775275   -0.000000    0.000000   -0.000000
    0.517514   11.802642   11.802642   11.802642   -0.000000    0.000000   -0.000000
    0.539077   11.831529   11.831529   11.831529   -0.000000    0.000000   -0.000000
    0.560640   11.861980   11.861980   11.861980   -0.000000    0.000000   -0.000000
    0.582204   11.894029   11.894029   11.894029   -0.000000    0.000000   -0.000000
    0.603767   11.927689   11.927689   11.927689   -0.000000    0.000000   -0.000000
    0.625330   11.962944   11.962944   11.962944   -0.000000    0.000000   -0.000000
    0.646893   11.999722   11.999722   11.999722   -0.000000    0.000000   -0.000000
    0.668456   12.037881   12.037881   12.037881   -0.000000    0.000000   -0.000000
    0.690019   12.077204   12.077204   12.077204   -0.000000    0.000000   -0.000000
    0.711582   12.117426   12.117426   12.117426   -0.000000    0.000000   -0.000000
    0.733145   12.158264   12.158264   12.158264   -0.000000    0.000000   -0.000000
    0.754708   12.199460   12.199460   12.199460   -0.000000    0.000000   -0.000000
    0.776271   12.240799   12.240799   12.240799   -0.000000    0.000000   -0.000000
    0.797834   12.282118   12.282118   12.282118   -0.000000    0.000000   -0.000000
    0.819398   12.323305   12.323305   12.323305   -0.000000    0.000000   -0.000000
    0.840961   12.364293   12.364293   12.364293   -0.000000    0.000000   -0.000000
    0.862524   12.405050   12.405050   12.405050   -0.000000    0.000000   -0.000000
    0.884087   12.445573   12.445573   12.445573   -0.000000    0.000000   -0.000000
    0.905650   12.485886   12.485886   12.485886   -0.000000   -0.000000   -0.000000
    0.927213   12.526028   12.526028   12.526028   -0.000000   -0.000000   -0.000000
    0.948776   12.566054   12.566054   12.566054   -0.000000   -0.000000   -0.000000
    0.970339   12.606028   12.606028   12.606028   -0.000000   -0.000000   -0.000000
    0.991902   12.646024   12.646024   12.646024   -0.000000   -0.000000   -0.000000
    1.013465   12.686123   12.686123   12.686123   -0.000000   -0.000000   -0.000000
    1.035028   12.726410   12.726410   12.726410   -0.000000   -0.000000   -0.000000
    1.056592   12.766974   12.766974   12.766974   -0.000000   -0.000000   -0.000000
    1.078155   12.807909   12.807909   12.807909   -0.000000   -0.000000   -0.000000
    1.099718   12.849309   12.849309   12.849309   -0.000000   -0.000000   -0.000000
    1.121281   12.891273   12.891273   12.891273   -0.000000   -0.000000   -0.000000
    1.142844   12.933903   12.933903   12.933903   -0.000000   -0.000000   -0.000000
    1.164407   12.977300   12.977300   12.977300   -0.000000   -0.000000    0.000000
    1.185970   13.021572   13.021572   13.021572   -0.000000   -0.000000    0.000000
    1.207533   13.066827   13.066827   13.066827   -0.000000   -0.000000    0.000000
    1.229096   13.113177   13.113177   13.113177   -0.000000   -0.000000    0.000000
    1.250659   13.160739   13.160739   13.160739   -0.000000   -0.000000    0.000000
    1.272222   13.209631   13.209631   13.209631   -0.000000   -0.000000    0.000000
[...]
   21.239646    0.584147    0.584147    0.584147    0.000000   -0.000000    0.000000
   21.261209    0.585060    0.585060    0.585060    0.000000   -0.000000    0.000000
   21.282773    0.585971    0.585971    0.585971    0.000000   -0.000000    0.000000
   21.304336    0.586878    0.586878    0.586878    0.000000   -0.000000    0.000000
   21.325899    0.587782    0.587782    0.587782    0.000000   -0.000000    0.000000
   21.347462    0.588683    0.588683    0.588683    0.000000   -0.000000    0.000000
   21.369025    0.589581    0.589581    0.589581    0.000000   -0.000000    0.000000
   21.390588    0.590476    0.590476    0.590476    0.000000   -0.000000    0.000000
   21.412151    0.591368    0.591368    0.591368    0.000000   -0.000000    0.000000
   21.433714    0.592257    0.592257    0.592257    0.000000   -0.000000    0.000000
   21.455277    0.593142    0.593142    0.593142    0.000000   -0.000000    0.000000
   21.476840    0.594025    0.594025    0.594025    0.000000   -0.000000    0.000000
   21.498403    0.594905    0.594905    0.594905    0.000000   -0.000000    0.000000
   21.519967    0.595782    0.595782    0.595782    0.000000   -0.000000    0.000000
   21.541530    0.596655    0.596655    0.596655    0.000000   -0.000000    0.000000

 The outermost node in the dielectric function lies at epsilon=  15.1

 BZINTS: Fermi energy:    2.889591;   32.000000 electrons
         Band energy:-0.798414E+02;  BLOECHL correction:    0.000000