 vasp.6.4.3 19Mar24 (build Aug 29 2024 15:27:20) complex

 executed on             LinuxIFC date 2025.03.24  12:04:51

 INCAR:
   SYSTEM = GaAs
   PREC = Normal
   ENCUT = 400
   ISMEAR = -5
   SIGMA = 0.1
   IBRION = 2
   POTIM = 0.1
   NFREE = 2
   NSW = 100
   ISIF = 2
   LEPSILON = .TRUE.
   LOPTICS = .TRUE.

 POTCAR:    PAW_PBE As 22Sep2009
 POTCAR:    PAW_PBE Ga 08Apr2002
|           W    W    AA    RRRRR   N    N  II  N    N   GGGG   !!!           |
|           W    W   A  A   R    R  NN   N  II  NN   N  G    G  !!!           |
|           W    W  A    A  R    R  N N  N  II  N N  N  G       !!!           |
|           W WW W  AAAAAA  RRRRR   N  N N  II  N  N N  G  GGG   !            |
|           WW  WW  A    A  R   R   N   NN  II  N   NN  G    G                |
|           W    W  A    A  R    R  N    N  II  N    N   GGGG   !!!           |
|     For optimal performance we recommend to set                             |
|       NCORE = 2 up to number-of-cores-per-socket                            |
|     This setting can greatly improve the performance of VASP for DFT.       |
|     The default, NCORE=1 might be grossly inefficient on modern             |
|     multi-core architectures or massively parallel machines. Do your        |
|     Unfortunately you need to use the default for GW and RPA                |
|     calculations (for HF NCORE is supported but not extensively tested      |
|     yet).                                                                   |

 POTCAR:    PAW_PBE As 22Sep2009
   VRHFIN =As: s2p3

   TITEL  = PAW_PBE As 22Sep2009
   POMASS =   74.922; ZVAL   =    5.000    mass and valenz
   ENMAX  =  208.702; ENMIN  =  156.526 eV

 POTCAR:    PAW_PBE Ga 08Apr2002
   VRHFIN =Ga: s2p1

   TITEL  = PAW_PBE Ga 08Apr2002
   POMASS =   69.723; ZVAL   =    3.000    mass and valenz
   ENMAX  =  134.678; ENMIN  =  101.009 eV

  PAW_PBE As 22Sep2009                  :
  PAW_PBE Ga 08Apr2002                  :

 POSCAR: cubic gallium arsenide
  positions in direct lattice
  velocities in cartesian coordinates

 exchange-correlation table for PE
   RHO(1)=    0.500       N(1)  =     2000
   RHO(2)=  100.500       N(2)  =     4000

 ion  position               nearest neighbor table
   1  0.000  0.000  0.000-  33 2.50  46 2.50  55 2.50  60 2.50
   2  0.000  0.000  0.500-  34 2.50  45 2.50  56 2.50  59 2.50
   3  0.000  0.500  0.000-  35 2.50  48 2.50  53 2.50  58 2.50
   4  0.000  0.500  0.500-  36 2.50  47 2.50  54 2.50  57 2.50
   5  0.500  0.000  0.000-  37 2.50  42 2.50  51 2.50  64 2.50
   6  0.500  0.000  0.500-  38 2.50  41 2.50  52 2.50  63 2.50
   7  0.500  0.500  0.000-  39 2.50  44 2.50  49 2.50  62 2.50
   8  0.500  0.500  0.500-  40 2.50  43 2.50  50 2.50  61 2.50
   9  0.250  0.250  0.000-  33 2.50  42 2.50  49 2.50  58 2.50
  10  0.250  0.250  0.500-  34 2.50  41 2.50  50 2.50  57 2.50
  11  0.250  0.750  0.000-  35 2.50  44 2.50  51 2.50  60 2.50
  12  0.250  0.750  0.500-  36 2.50  43 2.50  52 2.50  59 2.50
  13  0.750  0.250  0.000-  37 2.50  46 2.50  53 2.50  62 2.50
  14  0.750  0.250  0.500-  38 2.50  45 2.50  54 2.50  61 2.50
  15  0.750  0.750  0.000-  39 2.50  48 2.50  55 2.50  64 2.50
  16  0.750  0.750  0.500-  40 2.50  47 2.50  56 2.50  63 2.50
  17  0.250  0.000  0.250-  33 2.50  41 2.50  51 2.50  59 2.50
  18  0.250  0.000  0.750-  34 2.50  42 2.50  52 2.50  60 2.50
  19  0.250  0.500  0.250-  35 2.50  43 2.50  49 2.50  57 2.50
  20  0.250  0.500  0.750-  36 2.50  44 2.50  50 2.50  58 2.50
  21  0.750  0.000  0.250-  37 2.50  45 2.50  55 2.50  63 2.50
  22  0.750  0.000  0.750-  38 2.50  46 2.50  56 2.50  64 2.50
  23  0.750  0.500  0.250-  39 2.50  47 2.50  53 2.50  61 2.50
  24  0.750  0.500  0.750-  40 2.50  48 2.50  54 2.50  62 2.50
  25  0.000  0.250  0.250-  33 2.50  45 2.50  53 2.50  57 2.50
  26  0.000  0.250  0.750-  34 2.50  46 2.50  54 2.50  58 2.50
  27  0.000  0.750  0.250-  35 2.50  47 2.50  55 2.50  59 2.50
  28  0.000  0.750  0.750-  36 2.50  48 2.50  56 2.50  60 2.50
  29  0.500  0.250  0.250-  37 2.50  41 2.50  49 2.50  61 2.50
  30  0.500  0.250  0.750-  38 2.50  42 2.50  50 2.50  62 2.50
  31  0.500  0.750  0.250-  39 2.50  43 2.50  51 2.50  63 2.50
  32  0.500  0.750  0.750-  40 2.50  44 2.50  52 2.50  64 2.50
  33  0.125  0.125  0.125-   1 2.50   9 2.50  17 2.50  25 2.50
  34  0.125  0.125  0.625-   2 2.50  10 2.50  18 2.50  26 2.50
  35  0.125  0.625  0.125-   3 2.50  11 2.50  19 2.50  27 2.50
  36  0.125  0.625  0.625-   4 2.50  12 2.50  20 2.50  28 2.50
  37  0.625  0.125  0.125-   5 2.50  13 2.50  21 2.50  29 2.50
  38  0.625  0.125  0.625-   6 2.50  14 2.50  22 2.50  30 2.50
  39  0.625  0.625  0.125-   7 2.50  15 2.50  23 2.50  31 2.50
  40  0.625  0.625  0.625-   8 2.50  16 2.50  24 2.50  32 2.50
  41  0.375  0.125  0.375-   6 2.50  10 2.50  17 2.50  29 2.50
  42  0.375  0.125  0.875-   5 2.50   9 2.50  18 2.50  30 2.50
  43  0.375  0.625  0.375-   8 2.50  12 2.50  19 2.50  31 2.50
  44  0.375  0.625  0.875-   7 2.50  11 2.50  20 2.50  32 2.50
  45  0.875  0.125  0.375-   2 2.50  14 2.50  21 2.50  25 2.50
  46  0.875  0.125  0.875-   1 2.50  13 2.50  22 2.50  26 2.50
  47  0.875  0.625  0.375-   4 2.50  16 2.50  23 2.50  27 2.50
  48  0.875  0.625  0.875-   3 2.50  15 2.50  24 2.50  28 2.50
  49  0.375  0.375  0.125-   7 2.50   9 2.50  19 2.50  29 2.50
  50  0.375  0.375  0.625-   8 2.50  10 2.50  20 2.50  30 2.50
  51  0.375  0.875  0.125-   5 2.50  11 2.50  17 2.50  31 2.50
  52  0.375  0.875  0.625-   6 2.50  12 2.50  18 2.50  32 2.50
  53  0.875  0.375  0.125-   3 2.50  13 2.50  23 2.50  25 2.50
  54  0.875  0.375  0.625-   4 2.50  14 2.50  24 2.50  26 2.50
  55  0.875  0.875  0.125-   1 2.50  15 2.50  21 2.50  27 2.50
  56  0.875  0.875  0.625-   2 2.50  16 2.50  22 2.50  28 2.50
  57  0.125  0.375  0.375-   4 2.50  10 2.50  19 2.50  25 2.50
  58  0.125  0.375  0.875-   3 2.50   9 2.50  20 2.50  26 2.50
  59  0.125  0.875  0.375-   2 2.50  12 2.50  17 2.50  27 2.50
  60  0.125  0.875  0.875-   1 2.50  11 2.50  18 2.50  28 2.50
  61  0.625  0.375  0.375-   8 2.50  14 2.50  23 2.50  29 2.50
  62  0.625  0.375  0.875-   7 2.50  13 2.50  24 2.50  30 2.50
  63  0.625  0.875  0.375-   6 2.50  16 2.50  21 2.50  31 2.50
  64  0.625  0.875  0.875-   5 2.50  15 2.50  22 2.50  32 2.50

  LATTYP: Found a simple tetragonal cell.
 ALAT       =    11.4821334842
 C/A-ratio  =     1.0164387000

  Lattice vectors:

 A1 = (   0.0000000000,  11.4821334842,   0.0000000000)
 A2 = (   0.0000000000,   0.0000000000,  11.4821334842)
 A3 = (  11.6708848315,   0.0000000000,   0.0000000000)

Analysis of symmetry for initial positions (statically):
 Subroutine PRICEL returns following result:

  LATTYP: Found a body centered tetragonal cell.
 ALAT       =     4.0595472246
 C/A-ratio  =     1.4374613948

[...]

  32 primitive cells build up your supercell.

 Routine SETGRP: Setting up the symmetry group for a
 simple tetragonal supercell.

 Subroutine GETGRP returns: Found  8 space group operations
 (whereof  8 operations were pure point group operations)
 out of a pool of 16 trial point group operations.

The static configuration has the point symmetry D_2d.

Analysis of symmetry for dynamics (positions and initial velocities):
 Subroutine PRICEL returns following result:

[...]

The dynamic configuration has the point symmetry D_2d.

 Subroutine INISYM returns: Found  8 space group operations
 (whereof  8 operations are pure point group operations),
 and found    32 'primitive' translations

                                     Primitive cell

  volume of cell :      48.0838

  direct lattice vectors                    reciprocal lattice vectors
     2.917721208  0.000000000  2.870533371     0.171366613  0.174183657  0.174183657
     2.917721208  0.000000000 -2.870533371     0.171366613  0.174183657 -0.174183657
    -2.917721208  2.870533371  0.000000000     0.000000000  0.348367314  0.000000000

  length of vectors
     4.093050071  4.093050071  4.093050071     0.300077338  0.300077338  0.348367314

  position of ions in fractional coordinates (direct lattice)
     0.000000000  0.000000000  0.000000000
     0.750000000  0.250000000  0.500000000

  ion indices of the primitive-cell ions
   primitive index   ion index
                 1           1
                 2          33

 KPOINTS: Automatic mesh

Automatic generation of k-mesh.
 Grid dimensions read from file:
 generate k-points for:    5    5    5

 Generating k-lattice:

  Cartesian coordinates                     Fractional coordinates (reciprocal lattice)
     0.017136661  0.000000000  0.000000000     0.200000000  0.000000000  0.000000000
     0.000000000  0.017418366  0.000000000     0.000000000  0.200000000  0.000000000
     0.000000000  0.000000000  0.017418366     0.000000000  0.000000000  0.200000000

  Length of vectors
     0.017136661  0.017418366  0.017418366

  Shift w.r.t. Gamma in fractional coordinates (k-lattice)
     0.000000000  0.000000000  0.000000000

 TETIRR: Found    177 inequivalent tetrahedra from      750

 Subroutine IBZKPT returns following result:

 Found     18 irreducible k-points:

 Following reciprocal coordinates:
            Coordinates               Weight
  0.000000  0.000000  0.000000      1.000000
  0.200000  0.000000  0.000000      2.000000
  0.400000  0.000000  0.000000      2.000000
  0.000000  0.200000  0.000000      4.000000
  0.200000  0.200000  0.000000      8.000000
  0.400000  0.200000  0.000000      8.000000
  0.000000  0.400000  0.000000      4.000000
  0.200000  0.400000  0.000000      8.000000
  0.400000  0.400000  0.000000      8.000000
  0.000000  0.200000  0.200000      4.000000
  0.200000  0.200000  0.200000      8.000000
  0.400000  0.200000  0.200000      8.000000
  0.000000  0.400000  0.200000      8.000000
  0.200000  0.400000  0.200000     16.000000
  0.400000  0.400000  0.200000     16.000000
  0.000000  0.400000  0.400000      4.000000
  0.200000  0.400000  0.400000      8.000000
  0.400000  0.400000  0.400000      8.000000

 Following cartesian coordinates:
            Coordinates               Weight
  0.000000  0.000000  0.000000      1.000000
  0.017137  0.000000  0.000000      2.000000
  0.034273  0.000000  0.000000      2.000000
  0.000000  0.017418  0.000000      4.000000
  0.017137  0.017418  0.000000      8.000000
  0.034273  0.017418  0.000000      8.000000
  0.000000  0.034837  0.000000      4.000000
  0.017137  0.034837  0.000000      8.000000
  0.034273  0.034837  0.000000      8.000000
  0.000000  0.017418  0.017418      4.000000
  0.017137  0.017418  0.017418      8.000000
  0.034273  0.017418  0.017418      8.000000
  0.000000  0.034837  0.017418      8.000000
  0.017137  0.034837  0.017418     16.000000
  0.034273  0.034837  0.017418     16.000000
  0.000000  0.034837  0.034837      4.000000
  0.017137  0.034837  0.034837      8.000000
  0.034273  0.034837  0.034837      8.000000

 Subroutine IBZKPT_HF returns following result:

 Found    125 k-points in 1st BZ
 the following    125 k-points will be used (e.g. in the exchange kernel)
 Following reciprocal coordinates:   # in IRBZ
  0.000000  0.000000  0.000000    0.00800000   1 t-inv F
  0.200000  0.000000  0.000000    0.00800000   2 t-inv F
[...]
    0.694924   21.867963   56.985321   56.985321   -0.000000    0.000000    0.000000
    0.714779   21.966738   55.353044   55.353044   -0.000000    0.000000    0.000000
    0.734634   22.063690   53.495017   53.495017   -0.000000    0.000000    0.000000
    0.754489   22.158657   51.393270   51.393270   -0.000000    0.000000    0.000000
    0.774344   22.251485   49.028376   49.028376   -0.000000    0.000000    0.000000
    0.794199   22.342019   46.379444   46.379444   -0.000000    0.000000    0.000000
    0.814054   22.430099   43.424263   43.424263   -0.000000    0.000000    0.000000
    0.833909   22.515538   40.139732   40.139732   -0.000000    0.000000    0.000000
    0.853764   22.598094   36.502819   36.502819   -0.000000    0.000000    0.000000
    0.873618   22.677423   32.492470   32.492470   -0.000000    0.000000    0.000000
    0.893473   22.752992   28.093143   28.093143   -0.000000    0.000000    0.000000
    0.913328   22.823937   23.300930   23.300930   -0.000000    0.000000    0.000000
    0.933183   22.888853   18.133306   18.133306   -0.000000    0.000000    0.000000
    0.953038   22.945494   12.642625   12.642625   -0.000000    0.000000    0.000000
    0.972893   22.990504    6.930557    6.930557   -0.000000    0.000000    0.000000
    0.992748   23.019374    1.156045    1.156045   -0.000000    0.000000    0.000000
    1.012603   23.026899   -4.472867   -4.472867   -0.000000    0.000000    0.000000
    1.032458   23.008268   -9.727420   -9.727420   -0.000000    0.000000    0.000000
    1.052313   22.960483  -14.398507  -14.398507   -0.000000    0.000000    0.000000
    1.072168   22.883406  -18.331455  -18.331455   -0.000000    0.000000    0.000000
    1.092023   22.779799  -21.441380  -21.441380   -0.000000    0.000000    0.000000
    1.111878   22.654283  -23.710018  -23.710018   -0.000000    0.000000    0.000000
    1.131733   22.511757  -25.174627  -25.174627   -0.000000    0.000000    0.000000
    1.151588   22.355932  -25.915160  -25.915160   -0.000000    0.000000    0.000000
    1.171443   22.188513  -26.038654  -26.038654   -0.000000    0.000000    0.000000
[...]
   19.557141    0.600984    0.566115    0.566115    0.000000    0.000000   -0.000000
   19.576996    0.601848    0.567050    0.567050    0.000000    0.000000   -0.000000
   19.596851    0.602709    0.567982    0.567982    0.000000    0.000000   -0.000000
   19.616706    0.603568    0.568911    0.568911    0.000000    0.000000   -0.000000
   19.636561    0.604423    0.569837    0.569837    0.000000    0.000000   -0.000000
   19.656416    0.605275    0.570760    0.570760    0.000000    0.000000   -0.000000
   19.676271    0.606125    0.571680    0.571680    0.000000    0.000000   -0.000000
   19.696126    0.606972    0.572596    0.572596    0.000000    0.000000   -0.000000
   19.715981    0.607816    0.573510    0.573510    0.000000    0.000000   -0.000000
   19.735836    0.608657    0.574420    0.574420    0.000000    0.000000   -0.000000
   19.755691    0.609495    0.575327    0.575327    0.000000    0.000000   -0.000000
   19.775546    0.610330    0.576232    0.576232    0.000000    0.000000   -0.000000
   19.795401    0.611163    0.577133    0.577133    0.000000    0.000000   -0.000000
   19.815256    0.611993    0.578032    0.578032    0.000000    0.000000   -0.000000
   19.835111    0.612820    0.578927    0.578927    0.000000    0.000000   -0.000000

  frequency dependent IMAGINARY DIELECTRIC FUNCTION (independent particle, no local field effects) current-current
     E(ev)      X         Y         Z        XY        YZ        ZX
    0.000000  121.185163  125.050498  125.050498    0.000000    0.000000   -0.000000
    0.019855  121.185163  125.050498  125.050498    0.000000    0.000000   -0.000000
    0.039710   60.646705   62.614994   62.614994    0.000000    0.000000   -0.000000
    0.059565   40.491698   41.843801   41.843801    0.000000    0.000000   -0.000000
    0.079420   30.432906   31.489243   31.489243    0.000000    0.000000   -0.000000
    0.099275   24.412828   25.301559   25.301559    0.000000    0.000000   -0.000000
    0.119130   20.412163   21.197110   21.197110    0.000000    0.000000   -0.000000
    0.138985   17.565362   18.282528   18.282528    0.000000    0.000000   -0.000000
    0.158840   15.439549   16.110858   16.110858    0.000000    0.000000   -0.000000
    0.178695   13.794178   14.433660   14.433660    0.000000    0.000000   -0.000000
    0.198550   12.484891   13.101840   13.101840    0.000000    0.000000   -0.000000
    0.218405   11.419808   12.020549   12.020549    0.000000    0.000000   -0.000000
    0.238260   10.537668   11.126610   11.126610    0.000000    0.000000   -0.000000
    0.258115    9.796062   10.376344   10.376344    0.000000    0.000000   -0.000000
    0.277970    9.164711    9.738609    9.738609    0.000000    0.000000   -0.000000
    0.297824    8.621425    9.190621    9.190621    0.000000    0.000000   -0.000000
    0.317679    8.149584    8.715334    8.715334    0.000000    0.000000   -0.000000
    0.337534    7.736497    8.299751    8.299751    0.000000    0.000000   -0.000000
    0.357389    7.372313    7.933795    7.933795    0.000000    0.000000   -0.000000
    0.377244    7.049274    7.609539    7.609539    0.000000    0.000000   -0.000000
    0.397099    6.761192    7.320663    7.320663    0.000000    0.000000   -0.000000
    0.416954    6.503072    7.062075    7.062075    0.000000    0.000000   -0.000000
    0.436809    6.270845    6.829626    6.829626    0.000000    0.000000   -0.000000
    0.456664    6.061163    6.619908    6.619908    0.000000    0.000000   -0.000000
    0.476519    5.871252    6.430097    6.430097    0.000000    0.000000   -0.000000
    0.496374    5.698796    6.257837    6.257837    0.000000    0.000000   -0.000000
    0.516229    5.541852    6.101154    6.101154    0.000000    0.000000   -0.000000
    0.536084    5.398779    5.958382    5.958382    0.000000    0.000000   -0.000000
    0.555939    5.268190    5.828110    5.828110    0.000000    0.000000   -0.000000
    0.575794    5.148909    5.709145    5.709145    0.000000    0.000000   -0.000000
    0.595649    5.039935    5.600473    5.600473    0.000000    0.000000   -0.000000
    0.615504    4.940423    5.501235    5.501235    0.000000    0.000000   -0.000000
    0.635359    4.849660    5.410710    5.410710    0.000000    0.000000   -0.000000
    0.655214    4.767052    5.328296    5.328296    0.000000    0.000000   -0.000000
    0.675069    4.692113    5.253503    5.253503    0.000000    0.000000   -0.000000
    0.694924    4.624459    5.185942    5.185942    0.000000    0.000000   -0.000000
    0.714779    4.563800    5.125326    5.125326    0.000000    0.000000   -0.000000
    0.734634    4.509948    5.071470    5.071470    0.000000    0.000000   -0.000000
    0.754489    4.462814    5.024294    5.024294    0.000000    0.000000   -0.000000
    0.774344    4.422420    4.983835    4.983835    0.000000    0.000000   -0.000000
    0.794199    4.388913    4.950257    4.950257    0.000000    0.000000   -0.000000
    0.814054    4.362576    4.923873    4.923873    0.000000    0.000000   -0.000000
    0.833909    4.343856    4.905158    4.905158    0.000000    0.000000   -0.000000
    0.853764    4.333384    4.894772    4.894772    0.000000    0.000000   -0.000000
    0.873618    4.332004    4.893579    4.893579    0.000000    0.000000   -0.000000
    0.893473    4.340796    4.902664    4.902664    0.000000    0.000000   -0.000000
    0.913328    4.361070    4.923303    4.923303    0.000000    0.000000   -0.000000
    0.933183    4.394274    4.956833    4.956833    0.000000    0.000000   -0.000000
    0.953038    4.441713    5.004274    5.004274    0.000000    0.000000   -0.000000
    0.972893    4.503979    5.065593    5.065593    0.000000    0.000000   -0.000000
    0.992748    4.580120    5.138625    5.138625    0.000000    0.000000   -0.000000
    1.012603    4.666842    5.218084    5.218084    0.000000    0.000000   -0.000000
    1.032458    4.758310    5.295460    5.295460    0.000000    0.000000   -0.000000
    1.052313    4.847022    5.360541    5.360541    0.000000    0.000000   -0.000000
    1.072168    4.925665    5.404386    5.404386    0.000000    0.000000   -0.000000
    1.092023    4.989135    5.422496    5.422496    0.000000    0.000000   -0.000000
    1.111878    5.035746    5.416542    5.416542    0.000000    0.000000   -0.000000
    1.131733    5.067176    5.393734    5.393734    0.000000    0.000000   -0.000000
    1.151588    5.087397    5.364010    5.364010    0.000000    0.000000   -0.000000
    1.171443    5.101070    5.336247    5.336247    0.000000    0.000000   -0.000000
[...]
   19.557141    0.000276    0.000278    0.000278    0.000000    0.000000   -0.000000
   19.576996    0.000274    0.000277    0.000277    0.000000    0.000000   -0.000000
   19.596851    0.000272    0.000275    0.000275    0.000000    0.000000   -0.000000
   19.616706    0.000270    0.000273    0.000273    0.000000    0.000000   -0.000000
   19.636561    0.000269    0.000271    0.000271    0.000000    0.000000   -0.000000
   19.656416    0.000267    0.000269    0.000269    0.000000    0.000000   -0.000000
   19.676271    0.000265    0.000268    0.000268    0.000000    0.000000   -0.000000
   19.696126    0.000263    0.000266    0.000266    0.000000    0.000000   -0.000000
   19.715981    0.000262    0.000264    0.000264    0.000000    0.000000   -0.000000
   19.735836    0.000260    0.000262    0.000262    0.000000    0.000000   -0.000000
   19.755691    0.000258    0.000261    0.000261    0.000000    0.000000   -0.000000
   19.775546    0.000257    0.000259    0.000259    0.000000    0.000000   -0.000000
   19.795401    0.000255    0.000257    0.000257    0.000000    0.000000   -0.000000
   19.815256    0.000253    0.000256    0.000256    0.000000    0.000000   -0.000000
   19.835111    0.000252    0.000254    0.000254    0.000000    0.000000   -0.000000

  frequency dependent      REAL DIELECTRIC FUNCTION (independent particle, no local field effects) current-current
     E(ev)        X           Y           Z          XY          YZ          ZX
    0.000000   12.804271   13.014452   13.014452    0.000000    0.000000   -0.000000
    0.019855   12.804271   13.014452   13.014452    0.000000    0.000000   -0.000000
    0.039710   12.805545   13.014412   13.014412    0.000000    0.000000   -0.000000
    0.059565   12.807501   13.013964   13.013964    0.000000    0.000000   -0.000000
    0.079420   12.809920   13.012623   13.012623    0.000000    0.000000   -0.000000
    0.099275   12.812577   13.009895   13.009895    0.000000    0.000000   -0.000000
    0.119130   12.815292   13.005428   13.005428    0.000000    0.000000   -0.000000
    0.138985   12.817979   12.999106   12.999106    0.000000    0.000000   -0.000000
    0.158840   12.820636   12.991057   12.991057    0.000000    0.000000   -0.000000
    0.178695   12.823324   12.981582   12.981582    0.000000    0.000000   -0.000000
    0.198550   12.826140   12.971068   12.971068    0.000000    0.000000   -0.000000
    0.218405   12.829195   12.959923   12.959923    0.000000    0.000000   -0.000000
    0.238260   12.832617   12.948532   12.948532    0.000000    0.000000   -0.000000
    0.258115   12.836538   12.937240   12.937240    0.000000    0.000000   -0.000000
    0.277970   12.841096   12.926346   12.926346    0.000000    0.000000   -0.000000
    0.297824   12.846428   12.916102   12.916102    0.000000    0.000000   -0.000000
    0.317679   12.852662   12.906722   12.906722    0.000000    0.000000   -0.000000
    0.337534   12.859920   12.898385   12.898385    0.000000    0.000000   -0.000000
    0.357389   12.868316   12.891243   12.891243    0.000000    0.000000   -0.000000
    0.377244   12.877953   12.885425   12.885425    0.000000    0.000000   -0.000000
    0.397099   12.888927   12.881043   12.881043    0.000000    0.000000   -0.000000
    0.416954   12.901329   12.878196   12.878196    0.000000    0.000000   -0.000000
    0.436809   12.915244   12.876969   12.876969    0.000000    0.000000   -0.000000
    0.456664   12.930752   12.877445   12.877445    0.000000    0.000000   -0.000000
    0.476519   12.947935   12.879697   12.879697    0.000000    0.000000   -0.000000
    0.496374   12.966869   12.883799   12.883799    0.000000    0.000000   -0.000000
    0.516229   12.987634   12.889820   12.889820    0.000000    0.000000   -0.000000
    0.536084   13.010310   12.897833   12.897833    0.000000    0.000000   -0.000000
    0.555939   13.034982   12.907911   12.907911    0.000000    0.000000   -0.000000
    0.575794   13.061734   12.920128   12.920128    0.000000    0.000000   -0.000000
    0.595649   13.090661   12.934565   12.934565    0.000000    0.000000   -0.000000
    0.615504   13.121858   12.951307   12.951307    0.000000    0.000000   -0.000000
    0.635359   13.155430   12.970445   12.970445    0.000000    0.000000   -0.000000
    0.655214   13.191490   12.992076   12.992076    0.000000    0.000000   -0.000000
    0.675069   13.230158   13.016305   13.016305    0.000000    0.000000   -0.000000
    0.694924   13.271562   13.043244   13.043244    0.000000    0.000000   -0.000000
    0.714779   13.315841   13.073011   13.073011    0.000000    0.000000   -0.000000
    0.734634   13.363140   13.105728   13.105728    0.000000    0.000000   -0.000000
    0.754489   13.413608   13.141517   13.141517    0.000000    0.000000   -0.000000
    0.774344   13.467393   13.180490   13.180490    0.000000    0.000000   -0.000000
    0.794199   13.524632   13.222737   13.222737    0.000000    0.000000   -0.000000
    0.814054   13.585432   13.268297   13.268297    0.000000    0.000000   -0.000000
    0.833909   13.649844   13.317132   13.317132    0.000000    0.000000   -0.000000
    0.853764   13.717821   13.369067   13.369067    0.000000    0.000000   -0.000000
    0.873618   13.789155   13.423721   13.423721    0.000000    0.000000   -0.000000
    0.893473   13.863370   13.480384   13.480384    0.000000    0.000000   -0.000000
    0.913328   13.939558   13.537825   13.537825    0.000000    0.000000   -0.000000
    0.933183   14.016133   13.594013   13.594013    0.000000    0.000000   -0.000000
    0.953038   14.090547   13.645791   13.645791    0.000000    0.000000   -0.000000
    0.972893   14.159104   13.688697   13.688697    0.000000    0.000000   -0.000000
    0.992748   14.217141   13.717298   13.717298    0.000000    0.000000   -0.000000
    1.012603   14.259877   13.726423   13.726423    0.000000    0.000000   -0.000000
    1.032458   14.283864   13.713260   13.713260    0.000000    0.000000   -0.000000
    1.052313   14.288534   13.679512   13.679512    0.000000    0.000000   -0.000000
    1.072168   14.276952   13.632246   13.632246    0.000000    0.000000   -0.000000
    1.092023   14.255206   13.582543   13.582543    0.000000    0.000000   -0.000000
    1.111878   14.230701   13.542291   13.542291    0.000000    0.000000   -0.000000
    1.131733   14.210189   13.520489   13.520489    0.000000    0.000000   -0.000000
    1.151588   14.198302   13.520690   13.520690    0.000000    0.000000   -0.000000
    1.171443   14.197023   13.540790   13.540790    0.000000    0.000000   -0.000000
[...]
   19.557141    0.634783    0.648088    0.648088   -0.000000    0.000000    0.000000
   19.576996    0.635578    0.648856    0.648856   -0.000000    0.000000    0.000000
   19.596851    0.636370    0.649622    0.649622   -0.000000    0.000000    0.000000
   19.616706    0.637160    0.650386    0.650386   -0.000000    0.000000    0.000000
   19.636561    0.637946    0.651146    0.651146   -0.000000    0.000000    0.000000
   19.656416    0.638731    0.651904    0.651904   -0.000000    0.000000    0.000000
   19.676271    0.639512    0.652659    0.652659   -0.000000    0.000000    0.000000
   19.696126    0.640291    0.653412    0.653412   -0.000000    0.000000    0.000000
   19.715981    0.641067    0.654162    0.654162   -0.000000    0.000000    0.000000
   19.735836    0.641841    0.654910    0.654910   -0.000000    0.000000    0.000000
   19.755691    0.642612    0.655655    0.655655   -0.000000    0.000000    0.000000
   19.775546    0.643380    0.656398    0.656398   -0.000000    0.000000    0.000000
   19.795401    0.644146    0.657138    0.657138   -0.000000    0.000000    0.000000
   19.815256    0.644909    0.657876    0.657876   -0.000000    0.000000    0.000000
   19.835111    0.645669    0.658611    0.658611   -0.000000    0.000000    0.000000

 The outermost node in the dielectric function lies at epsilon=  12.8

 BZINTS: Fermi energy:    2.323387;  256.000000 electrons
         Band energy:-0.726596E+03;  BLOECHL correction:    0.000000