 vasp.6.4.3 19Mar24 (build Aug 29 2024 15:27:20) complex

 executed on             LinuxIFC date 2025.03.24  12:03:53

 INCAR:
   SYSTEM = GaAs
   PREC = Normal
   ENCUT = 400
   ISMEAR = -5
   SIGMA = 0.1
   IBRION = 2
   POTIM = 0.1
   NFREE = 2
   NSW = 100
   ISIF = 2
   LEPSILON = .TRUE.
   LOPTICS = .TRUE.

 POTCAR:    PAW_PBE As 22Sep2009
 POTCAR:    PAW_PBE Ga 08Apr2002
|           W    W    AA    RRRRR   N    N  II  N    N   GGGG   !!!           |
|           W    W   A  A   R    R  NN   N  II  NN   N  G    G  !!!           |
|           W    W  A    A  R    R  N N  N  II  N N  N  G       !!!           |
|           W WW W  AAAAAA  RRRRR   N  N N  II  N  N N  G  GGG   !            |
|           WW  WW  A    A  R   R   N   NN  II  N   NN  G    G                |
|           W    W  A    A  R    R  N    N  II  N    N   GGGG   !!!           |
|     For optimal performance we recommend to set                             |
|       NCORE = 2 up to number-of-cores-per-socket                            |
|     This setting can greatly improve the performance of VASP for DFT.       |
|     The default, NCORE=1 might be grossly inefficient on modern             |
|     multi-core architectures or massively parallel machines. Do your        |
|     Unfortunately you need to use the default for GW and RPA                |
|     calculations (for HF NCORE is supported but not extensively tested      |
|     yet).                                                                   |

 POTCAR:    PAW_PBE As 22Sep2009
   VRHFIN =As: s2p3

   TITEL  = PAW_PBE As 22Sep2009
   POMASS =   74.922; ZVAL   =    5.000    mass and valenz
   ENMAX  =  208.702; ENMIN  =  156.526 eV

 POTCAR:    PAW_PBE Ga 08Apr2002
   VRHFIN =Ga: s2p1

   TITEL  = PAW_PBE Ga 08Apr2002
   POMASS =   69.723; ZVAL   =    3.000    mass and valenz
   ENMAX  =  134.678; ENMIN  =  101.009 eV

  PAW_PBE As 22Sep2009                  :
  PAW_PBE Ga 08Apr2002                  :

 POSCAR: cubic gallium arsenide
  positions in direct lattice
  velocities in cartesian coordinates

 exchange-correlation table for PE
   RHO(1)=    0.500       N(1)  =     2000
   RHO(2)=  100.500       N(2)  =     4000

 ion  position               nearest neighbor table
   1  0.000  0.000  0.000-  33 2.50  46 2.50  55 2.50  60 2.50
   2  0.000  0.000  0.500-  34 2.50  45 2.50  56 2.50  59 2.50
   3  0.000  0.500  0.000-  35 2.50  48 2.50  53 2.50  58 2.50
   4  0.000  0.500  0.500-  36 2.50  47 2.50  54 2.50  57 2.50
   5  0.500  0.000  0.000-  37 2.50  42 2.50  51 2.50  64 2.50
   6  0.500  0.000  0.500-  38 2.50  41 2.50  52 2.50  63 2.50
   7  0.500  0.500  0.000-  39 2.50  44 2.50  49 2.50  62 2.50
   8  0.500  0.500  0.500-  40 2.50  43 2.50  50 2.50  61 2.50
   9  0.250  0.250  0.000-  33 2.50  42 2.50  49 2.50  58 2.50
  10  0.250  0.250  0.500-  34 2.50  41 2.50  50 2.50  57 2.50
  11  0.250  0.750  0.000-  35 2.50  44 2.50  51 2.50  60 2.50
  12  0.250  0.750  0.500-  36 2.50  43 2.50  52 2.50  59 2.50
  13  0.750  0.250  0.000-  37 2.50  46 2.50  53 2.50  62 2.50
  14  0.750  0.250  0.500-  38 2.50  45 2.50  54 2.50  61 2.50
  15  0.750  0.750  0.000-  39 2.50  48 2.50  55 2.50  64 2.50
  16  0.750  0.750  0.500-  40 2.50  47 2.50  56 2.50  63 2.50
  17  0.250  0.000  0.250-  33 2.50  41 2.50  51 2.50  59 2.50
  18  0.250  0.000  0.750-  34 2.50  42 2.50  52 2.50  60 2.50
  19  0.250  0.500  0.250-  35 2.50  43 2.50  49 2.50  57 2.50
  20  0.250  0.500  0.750-  36 2.50  44 2.50  50 2.50  58 2.50
  21  0.750  0.000  0.250-  37 2.50  45 2.50  55 2.50  63 2.50
  22  0.750  0.000  0.750-  38 2.50  46 2.50  56 2.50  64 2.50
  23  0.750  0.500  0.250-  39 2.50  47 2.50  53 2.50  61 2.50
  24  0.750  0.500  0.750-  40 2.50  48 2.50  54 2.50  62 2.50
  25  0.000  0.250  0.250-  33 2.50  45 2.50  53 2.50  57 2.50
  26  0.000  0.250  0.750-  34 2.50  46 2.50  54 2.50  58 2.50
  27  0.000  0.750  0.250-  35 2.50  47 2.50  55 2.50  59 2.50
  28  0.000  0.750  0.750-  36 2.50  48 2.50  56 2.50  60 2.50
  29  0.500  0.250  0.250-  37 2.50  41 2.50  49 2.50  61 2.50
  30  0.500  0.250  0.750-  38 2.50  42 2.50  50 2.50  62 2.50
  31  0.500  0.750  0.250-  39 2.50  43 2.50  51 2.50  63 2.50
  32  0.500  0.750  0.750-  40 2.50  44 2.50  52 2.50  64 2.50
  33  0.125  0.125  0.125-   1 2.50   9 2.50  17 2.50  25 2.50
  34  0.125  0.125  0.625-   2 2.50  10 2.50  18 2.50  26 2.50
  35  0.125  0.625  0.125-   3 2.50  11 2.50  19 2.50  27 2.50
  36  0.125  0.625  0.625-   4 2.50  12 2.50  20 2.50  28 2.50
  37  0.625  0.125  0.125-   5 2.50  13 2.50  21 2.50  29 2.50
  38  0.625  0.125  0.625-   6 2.50  14 2.50  22 2.50  30 2.50
  39  0.625  0.625  0.125-   7 2.50  15 2.50  23 2.50  31 2.50
  40  0.625  0.625  0.625-   8 2.50  16 2.50  24 2.50  32 2.50
  41  0.375  0.125  0.375-   6 2.50  10 2.50  17 2.50  29 2.50
  42  0.375  0.125  0.875-   5 2.50   9 2.50  18 2.50  30 2.50
  43  0.375  0.625  0.375-   8 2.50  12 2.50  19 2.50  31 2.50
  44  0.375  0.625  0.875-   7 2.50  11 2.50  20 2.50  32 2.50
  45  0.875  0.125  0.375-   2 2.50  14 2.50  21 2.50  25 2.50
  46  0.875  0.125  0.875-   1 2.50  13 2.50  22 2.50  26 2.50
  47  0.875  0.625  0.375-   4 2.50  16 2.50  23 2.50  27 2.50
  48  0.875  0.625  0.875-   3 2.50  15 2.50  24 2.50  28 2.50
  49  0.375  0.375  0.125-   7 2.50   9 2.50  19 2.50  29 2.50
  50  0.375  0.375  0.625-   8 2.50  10 2.50  20 2.50  30 2.50
  51  0.375  0.875  0.125-   5 2.50  11 2.50  17 2.50  31 2.50
  52  0.375  0.875  0.625-   6 2.50  12 2.50  18 2.50  32 2.50
  53  0.875  0.375  0.125-   3 2.50  13 2.50  23 2.50  25 2.50
  54  0.875  0.375  0.625-   4 2.50  14 2.50  24 2.50  26 2.50
  55  0.875  0.875  0.125-   1 2.50  15 2.50  21 2.50  27 2.50
  56  0.875  0.875  0.625-   2 2.50  16 2.50  22 2.50  28 2.50
  57  0.125  0.375  0.375-   4 2.50  10 2.50  19 2.50  25 2.50
  58  0.125  0.375  0.875-   3 2.50   9 2.50  20 2.50  26 2.50
  59  0.125  0.875  0.375-   2 2.50  12 2.50  17 2.50  27 2.50
  60  0.125  0.875  0.875-   1 2.50  11 2.50  18 2.50  28 2.50
  61  0.625  0.375  0.375-   8 2.50  14 2.50  23 2.50  29 2.50
  62  0.625  0.375  0.875-   7 2.50  13 2.50  24 2.50  30 2.50
  63  0.625  0.875  0.375-   6 2.50  16 2.50  21 2.50  31 2.50
  64  0.625  0.875  0.875-   5 2.50  15 2.50  22 2.50  32 2.50

  LATTYP: Found a simple cubic cell.
 ALAT       =    11.5267998336

  Lattice vectors:

 A1 = (  11.5267998336,   0.0000000000,   0.0000000000)
 A2 = (   0.0000000000,  11.5267998336,   0.0000000000)
 A3 = (   0.0000000000,   0.0000000000,  11.5267998336)

Analysis of symmetry for initial positions (statically):
 Subroutine PRICEL returns following result:

  LATTYP: Found a face centered cubic cell.
 ALAT       =     5.7633999168

[...]

  32 primitive cells build up your supercell.

 Routine SETGRP: Setting up the symmetry group for a
 simple cubic supercell.

 Subroutine GETGRP returns: Found 24 space group operations
 (whereof 24 operations were pure point group operations)
 out of a pool of 48 trial point group operations.

The static configuration has the point symmetry T_d .

Analysis of symmetry for dynamics (positions and initial velocities):
 Subroutine PRICEL returns following result:

[...]

The dynamic configuration has the point symmetry T_d .

 Subroutine INISYM returns: Found 24 space group operations
 (whereof 24 operations are pure point group operations),
 and found    32 'primitive' translations

                                     Primitive cell

  volume of cell :      47.8604

  direct lattice vectors                    reciprocal lattice vectors
     2.881699958 -2.881699958  0.000000000     0.173508695 -0.173508695 -0.173508695
     2.881699958  0.000000000  2.881699958     0.173508695  0.173508695  0.173508695
     0.000000000 -2.881699958  2.881699958    -0.173508695 -0.173508695  0.173508695

  length of vectors
     4.075339164  4.075339164  4.075339164     0.300525876  0.300525876  0.300525876

  position of ions in fractional coordinates (direct lattice)
     0.000000000  0.000000000  0.000000000
     0.750000000  0.750000000  0.750000000

  ion indices of the primitive-cell ions
   primitive index   ion index
                 1           1
                 2          33

 KPOINTS: Automatic mesh

Automatic generation of k-mesh.
 Grid dimensions read from file:
 generate k-points for:    5    5    5

 Generating k-lattice:

  Cartesian coordinates                     Fractional coordinates (reciprocal lattice)
     0.017350870  0.000000000  0.000000000     0.200000000  0.000000000  0.000000000
     0.000000000  0.017350870  0.000000000     0.000000000  0.200000000  0.000000000
     0.000000000  0.000000000  0.017350870     0.000000000  0.000000000  0.200000000

  Length of vectors
     0.017350870  0.017350870  0.017350870

  Shift w.r.t. Gamma in fractional coordinates (k-lattice)
     0.000000000  0.000000000  0.000000000

 TETIRR: Found     57 inequivalent tetrahedra from      750

 Subroutine IBZKPT returns following result:

 Found     10 irreducible k-points:

 Following reciprocal coordinates:
            Coordinates               Weight
  0.000000  0.000000  0.000000      1.000000
  0.200000  0.000000  0.000000      6.000000
  0.400000  0.000000  0.000000      6.000000
  0.200000  0.200000  0.000000     12.000000
  0.400000  0.200000  0.000000     24.000000
  0.400000  0.400000  0.000000     12.000000
  0.200000  0.200000  0.200000      8.000000
  0.400000  0.200000  0.200000     24.000000
  0.400000  0.400000  0.200000     24.000000
  0.400000  0.400000  0.400000      8.000000

 Following cartesian coordinates:
            Coordinates               Weight
  0.000000  0.000000  0.000000      1.000000
  0.017351  0.000000  0.000000      6.000000
  0.034702  0.000000  0.000000      6.000000
  0.017351  0.017351  0.000000     12.000000
  0.034702  0.017351  0.000000     24.000000
  0.034702  0.034702  0.000000     12.000000
  0.017351  0.017351  0.017351      8.000000
  0.034702  0.017351  0.017351     24.000000
  0.034702  0.034702  0.017351     24.000000
  0.034702  0.034702  0.034702      8.000000

 Subroutine IBZKPT_HF returns following result:

 Found    125 k-points in 1st BZ
 the following    125 k-points will be used (e.g. in the exchange kernel)
 Following reciprocal coordinates:   # in IRBZ
  0.000000  0.000000  0.000000    0.00800000   1 t-inv F
  0.200000  0.000000  0.000000    0.00800000   2 t-inv F
  0.400000  0.000000  0.000000    0.00800000   3 t-inv F
  0.200000  0.200000  0.000000    0.00800000   4 t-inv F
  0.400000  0.200000  0.000000    0.00800000   5 t-inv F
  0.400000  0.400000  0.000000    0.00800000   6 t-inv F
  0.200000  0.200000  0.200000    0.00800000   7 t-inv F
  0.400000  0.200000  0.200000    0.00800000   8 t-inv F
  0.400000  0.400000  0.200000    0.00800000   9 t-inv F
  0.400000  0.400000  0.400000    0.00800000  10 t-inv F
  0.000000  0.200000  0.000000    0.00800000   2 t-inv F
  0.000000  0.000000  0.200000    0.00800000   2 t-inv F
  0.000000 -0.200000  0.000000    0.00800000   2 t-inv F
  0.000000  0.000000 -0.200000    0.00800000   2 t-inv F
 -0.200000  0.000000  0.000000    0.00800000   2 t-inv F
  0.000000  0.400000  0.000000    0.00800000   3 t-inv F
[...]
    0.701694   26.666047   26.666047   26.666047   -0.000000   -0.000000    0.000000
    0.721743   26.453843   26.453843   26.453843   -0.000000   -0.000000    0.000000
    0.741791   26.195794   26.195794   26.195794   -0.000000   -0.000000    0.000000
    0.761839   25.888167   25.888167   25.888167   -0.000000   -0.000000    0.000000
    0.781888   25.526925   25.526925   25.526925    0.000000   -0.000000    0.000000
    0.801936   25.107694   25.107694   25.107694    0.000000   -0.000000    0.000000
    0.821985   24.625743   24.625743   24.625743    0.000000   -0.000000    0.000000
    0.842033   24.075974   24.075974   24.075974    0.000000   -0.000000    0.000000
    0.862081   23.452942   23.452942   23.452942    0.000000   -0.000000    0.000000
    0.882130   22.750948   22.750948   22.750948    0.000000    0.000000    0.000000
    0.902178   21.964243   21.964243   21.964243    0.000000    0.000000    0.000000
    0.922227   21.087469   21.087469   21.087469    0.000000    0.000000   -0.000000
    0.942275   20.116480   20.116480   20.116480    0.000000    0.000000   -0.000000
    0.962323   19.049834   19.049834   19.049834   -0.000000    0.000000   -0.000000
    0.982372   17.891297   17.891297   17.891297   -0.000000    0.000000   -0.000000
    1.002420   16.653619   16.653619   16.653619   -0.000000    0.000000   -0.000000
    1.022469   15.363185   15.363185   15.363185   -0.000000    0.000000   -0.000000
    1.042517   14.063462   14.063462   14.063462   -0.000000    0.000000   -0.000000
    1.062565   12.813431   12.813431   12.813431   -0.000000    0.000000   -0.000000
    1.082614   11.678422   11.678422   11.678422   -0.000000   -0.000000   -0.000000
    1.102662   10.716145   10.716145   10.716145   -0.000000   -0.000000   -0.000000
    1.122711    9.964493    9.964493    9.964493   -0.000000   -0.000000   -0.000000
    1.142759    9.435889    9.435889    9.435889   -0.000000   -0.000000   -0.000000
    1.162807    9.118488    9.118488    9.118488   -0.000000   -0.000000   -0.000000
    1.182856    8.982138    8.982138    8.982138   -0.000000   -0.000000   -0.000000
[...]
   19.747677    0.613582    0.613582    0.613582    0.000000    0.000000    0.000000
   19.767725    0.614419    0.614419    0.614419    0.000000    0.000000    0.000000
   19.787774    0.615253    0.615253    0.615253    0.000000    0.000000    0.000000
   19.807822    0.616084    0.616084    0.616084    0.000000    0.000000    0.000000
   19.827871    0.616913    0.616913    0.616913    0.000000    0.000000    0.000000
   19.847919    0.617738    0.617738    0.617738    0.000000    0.000000    0.000000
   19.867967    0.618561    0.618561    0.618561    0.000000    0.000000    0.000000
   19.888016    0.619381    0.619381    0.619381    0.000000    0.000000    0.000000
   19.908064    0.620199    0.620199    0.620199    0.000000    0.000000    0.000000
   19.928113    0.621013    0.621013    0.621013    0.000000    0.000000    0.000000
   19.948161    0.621825    0.621825    0.621825    0.000000    0.000000    0.000000
   19.968209    0.622634    0.622634    0.622634    0.000000    0.000000    0.000000
   19.988258    0.623441    0.623441    0.623441    0.000000    0.000000    0.000000
   20.008306    0.624244    0.624244    0.624244    0.000000    0.000000    0.000000
   20.028355    0.625045    0.625045    0.625045    0.000000    0.000000    0.000000

  frequency dependent IMAGINARY DIELECTRIC FUNCTION (independent particle, no local field effects) current-current
     E(ev)      X         Y         Z        XY        YZ        ZX
    0.000000  118.853088  118.853088  118.853088   -0.000000   -0.000000    0.000000
    0.020048  118.853088  118.853088  118.853088   -0.000000   -0.000000    0.000000
    0.040097   59.480349   59.480349   59.480349   -0.000000   -0.000000    0.000000
    0.060145   39.714110   39.714110   39.714110   -0.000000   -0.000000    0.000000
    0.080194   29.850351   29.850351   29.850351   -0.000000   -0.000000    0.000000
    0.100242   23.948528   23.948528   23.948528   -0.000000   -0.000000    0.000000
    0.120290   20.028628   20.028628   20.028628   -0.000000   -0.000000    0.000000
    0.140339   17.242124   17.242124   17.242124   -0.000000   -0.000000    0.000000
    0.160387   15.164669   15.164669   15.164669   -0.000000   -0.000000    0.000000
    0.180436   13.560307   13.560307   13.560307   -0.000000   -0.000000    0.000000
    0.200484   12.287208   12.287208   12.287208   -0.000000   -0.000000    0.000000
    0.220532   11.254882   11.254882   11.254882   -0.000000   -0.000000    0.000000
    0.240581   10.402843   10.402843   10.402843   -0.000000   -0.000000    0.000000
    0.260629    9.689132    9.689132    9.689132   -0.000000   -0.000000    0.000000
    0.280678    9.083751    9.083751    9.083751   -0.000000   -0.000000    0.000000
    0.300726    8.564704    8.564704    8.564704   -0.000000   -0.000000    0.000000
    0.320774    8.115521    8.115521    8.115521   -0.000000   -0.000000    0.000000
    0.340823    7.723633    7.723633    7.723633   -0.000000   -0.000000    0.000000
    0.360871    7.379295    7.379295    7.379295   -0.000000   -0.000000    0.000000
    0.380920    7.074845    7.074845    7.074845   -0.000000   -0.000000    0.000000
    0.400968    6.804179    6.804179    6.804179   -0.000000   -0.000000    0.000000
    0.421016    6.562380    6.562380    6.562380   -0.000000   -0.000000    0.000000
    0.441065    6.345448    6.345448    6.345448   -0.000000   -0.000000    0.000000
    0.461113    6.150098    6.150098    6.150098   -0.000000   -0.000000    0.000000
    0.481162    5.973614    5.973614    5.973614   -0.000000   -0.000000    0.000000
    0.501210    5.813731    5.813731    5.813731   -0.000000   -0.000000    0.000000
    0.521258    5.668548    5.668548    5.668548   -0.000000   -0.000000    0.000000
    0.541307    5.536465    5.536465    5.536465   -0.000000   -0.000000    0.000000
    0.561355    5.416129    5.416129    5.416129   -0.000000   -0.000000   -0.000000
    0.581404    5.306389    5.306389    5.306389   -0.000000   -0.000000   -0.000000
    0.601452    5.206268    5.206268    5.206268   -0.000000   -0.000000   -0.000000
    0.621500    5.114936    5.114936    5.114936   -0.000000   -0.000000   -0.000000
    0.641549    5.031690    5.031690    5.031690   -0.000000   -0.000000   -0.000000
    0.661597    4.955938    4.955938    4.955938   -0.000000   -0.000000   -0.000000
    0.681646    4.887189    4.887189    4.887189   -0.000000   -0.000000   -0.000000
    0.701694    4.825041    4.825041    4.825041   -0.000000   -0.000000   -0.000000
    0.721743    4.769183    4.769183    4.769183   -0.000000   -0.000000   -0.000000
    0.741791    4.719384    4.719384    4.719384   -0.000000   -0.000000   -0.000000
    0.761839    4.675502    4.675502    4.675502   -0.000000   -0.000000   -0.000000
    0.781888    4.637483    4.637483    4.637483   -0.000000   -0.000000   -0.000000
    0.801936    4.605374    4.605374    4.605374   -0.000000   -0.000000   -0.000000
    0.821985    4.579336    4.579336    4.579336   -0.000000   -0.000000   -0.000000
    0.842033    4.559657    4.559657    4.559657   -0.000000   -0.000000   -0.000000
    0.862081    4.546782    4.546782    4.546782   -0.000000   -0.000000   -0.000000
    0.882130    4.541330    4.541330    4.541330   -0.000000   -0.000000   -0.000000
    0.902178    4.544130    4.544130    4.544130   -0.000000   -0.000000   -0.000000
    0.922227    4.556249    4.556249    4.556249   -0.000000   -0.000000   -0.000000
    0.942275    4.579026    4.579026    4.579026   -0.000000   -0.000000   -0.000000
    0.962323    4.614061    4.614061    4.614061   -0.000000   -0.000000   -0.000000
    0.982372    4.663084    4.663084    4.663084   -0.000000   -0.000000   -0.000000
    1.002420    4.727533    4.727533    4.727533   -0.000000   -0.000000   -0.000000
    1.022469    4.807605    4.807605    4.807605   -0.000000   -0.000000   -0.000000
    1.042517    4.900738    4.900738    4.900738   -0.000000   -0.000000   -0.000000
    1.062565    5.000131    5.000131    5.000131   -0.000000   -0.000000   -0.000000
    1.082614    5.094730    5.094730    5.094730   -0.000000   -0.000000   -0.000000
    1.102662    5.171794    5.171794    5.171794   -0.000000   -0.000000   -0.000000
    1.122711    5.221442    5.221442    5.221442   -0.000000   -0.000000   -0.000000
    1.142759    5.240876    5.240876    5.240876   -0.000000   -0.000000   -0.000000
    1.162807    5.235695    5.235695    5.235695   -0.000000   -0.000000   -0.000000
    1.182856    5.217110    5.217110    5.217110   -0.000000   -0.000000   -0.000000
[...]
   19.747677    0.000266    0.000266    0.000266   -0.000000   -0.000000    0.000000
   19.767725    0.000264    0.000264    0.000264   -0.000000   -0.000000    0.000000
   19.787774    0.000262    0.000262    0.000262   -0.000000   -0.000000    0.000000
   19.807822    0.000261    0.000261    0.000261   -0.000000   -0.000000    0.000000
   19.827871    0.000259    0.000259    0.000259   -0.000000   -0.000000    0.000000
   19.847919    0.000257    0.000257    0.000257   -0.000000   -0.000000    0.000000
   19.867967    0.000255    0.000255    0.000255   -0.000000   -0.000000    0.000000
   19.888016    0.000254    0.000254    0.000254   -0.000000   -0.000000    0.000000
   19.908064    0.000252    0.000252    0.000252   -0.000000   -0.000000    0.000000
   19.928113    0.000251    0.000251    0.000251   -0.000000   -0.000000    0.000000
   19.948161    0.000249    0.000249    0.000249   -0.000000   -0.000000    0.000000
   19.968209    0.000247    0.000247    0.000247   -0.000000   -0.000000    0.000000
   19.988258    0.000246    0.000246    0.000246   -0.000000   -0.000000    0.000000
   20.008306    0.000244    0.000244    0.000244   -0.000000   -0.000000    0.000000
   20.028355    0.000243    0.000243    0.000243   -0.000000   -0.000000    0.000000

  frequency dependent      REAL DIELECTRIC FUNCTION (independent particle, no local field effects) current-current
     E(ev)        X           Y           Z          XY          YZ          ZX
    0.000000   12.714464   12.714464   12.714464   -0.000000   -0.000000    0.000000
    0.020048   12.714464   12.714464   12.714464   -0.000000   -0.000000    0.000000
    0.040097   12.717379   12.717379   12.717379   -0.000000   -0.000000    0.000000
    0.060145   12.722141   12.722141   12.722141   -0.000000   -0.000000    0.000000
    0.080194   12.728588   12.728588   12.728588   -0.000000   -0.000000    0.000000
    0.100242   12.736469   12.736469   12.736469   -0.000000   -0.000000    0.000000
    0.120290   12.745420   12.745420   12.745420   -0.000000   -0.000000    0.000000
    0.140339   12.754967   12.754967   12.754967   -0.000000   -0.000000    0.000000
    0.160387   12.764570   12.764570   12.764570   -0.000000   -0.000000    0.000000
    0.180436   12.773710   12.773710   12.773710   -0.000000   -0.000000    0.000000
    0.200484   12.781986   12.781986   12.781986   -0.000000   -0.000000    0.000000
    0.220532   12.789180   12.789180   12.789180   -0.000000   -0.000000    0.000000
    0.240581   12.795259   12.795259   12.795259   -0.000000   -0.000000    0.000000
    0.260629   12.800328   12.800328   12.800328   -0.000000   -0.000000    0.000000
    0.280678   12.804583   12.804583   12.804583   -0.000000   -0.000000    0.000000
    0.300726   12.808263   12.808263   12.808263   -0.000000   -0.000000    0.000000
    0.320774   12.811621   12.811621   12.811621   -0.000000   -0.000000    0.000000
    0.340823   12.814907   12.814907   12.814907   -0.000000   -0.000000    0.000000
    0.360871   12.818352   12.818352   12.818352   -0.000000   -0.000000    0.000000
    0.380920   12.822171   12.822171   12.822171   -0.000000   -0.000000    0.000000
    0.400968   12.826558   12.826558   12.826558   -0.000000   -0.000000    0.000000
    0.421016   12.831688   12.831688   12.831688   -0.000000   -0.000000    0.000000
    0.441065   12.837719   12.837719   12.837719   -0.000000   -0.000000    0.000000
    0.461113   12.844795   12.844795   12.844795   -0.000000   -0.000000    0.000000
    0.481162   12.853047   12.853047   12.853047   -0.000000   -0.000000    0.000000
    0.501210   12.862598   12.862598   12.862598   -0.000000   -0.000000    0.000000
    0.521258   12.873561   12.873561   12.873561   -0.000000   -0.000000    0.000000
    0.541307   12.886045   12.886045   12.886045   -0.000000   -0.000000    0.000000
    0.561355   12.900157   12.900157   12.900157   -0.000000   -0.000000    0.000000
    0.581404   12.916000   12.916000   12.916000   -0.000000   -0.000000    0.000000
    0.601452   12.933676   12.933676   12.933676   -0.000000   -0.000000    0.000000
    0.621500   12.953292   12.953292   12.953292   -0.000000   -0.000000    0.000000
    0.641549   12.974954   12.974954   12.974954   -0.000000   -0.000000    0.000000
    0.661597   12.998774   12.998774   12.998774   -0.000000   -0.000000    0.000000
    0.681646   13.024869   13.024869   13.024869   -0.000000   -0.000000    0.000000
    0.701694   13.053362   13.053362   13.053362   -0.000000   -0.000000   -0.000000
    0.721743   13.084383   13.084383   13.084383   -0.000000   -0.000000   -0.000000
    0.741791   13.118069   13.118069   13.118069   -0.000000   -0.000000   -0.000000
    0.761839   13.154565   13.154565   13.154565   -0.000000   -0.000000   -0.000000
    0.781888   13.194019   13.194019   13.194019   -0.000000   -0.000000   -0.000000
    0.801936   13.236581   13.236581   13.236581   -0.000000   -0.000000   -0.000000
    0.821985   13.282391   13.282391   13.282391   -0.000000   -0.000000   -0.000000
    0.842033   13.331566   13.331566   13.331566   -0.000000   -0.000000   -0.000000
    0.862081   13.384176   13.384176   13.384176   -0.000000   -0.000000   -0.000000
    0.882130   13.440207   13.440207   13.440207   -0.000000   -0.000000   -0.000000
    0.902178   13.499503   13.499503   13.499503   -0.000000   -0.000000   -0.000000
    0.922227   13.561684   13.561684   13.561684   -0.000000   -0.000000   -0.000000
    0.942275   13.626004   13.626004   13.626004   -0.000000   -0.000000   -0.000000
    0.962323   13.691122   13.691122   13.691122   -0.000000   -0.000000   -0.000000
    0.982372   13.754744   13.754744   13.754744   -0.000000   -0.000000   -0.000000
    1.002420   13.813168   13.813168   13.813168   -0.000000   -0.000000   -0.000000
    1.022469   13.860957   13.860957   13.860957   -0.000000   -0.000000   -0.000000
    1.042517   13.891292   13.891292   13.891292   -0.000000   -0.000000   -0.000000
    1.062565   13.897721   13.897721   13.897721   -0.000000   -0.000000   -0.000000
    1.082614   13.877284   13.877284   13.877284   -0.000000   -0.000000   -0.000000
    1.102662   13.833460   13.833460   13.833460   -0.000000   -0.000000   -0.000000
    1.122711   13.776752   13.776752   13.776752   -0.000000   -0.000000    0.000000
    1.142759   13.721811   13.721811   13.721811   -0.000000   -0.000000    0.000000
    1.162807   13.682111   13.682111   13.682111   -0.000000   -0.000000    0.000000
    1.182856   13.664962   13.664962   13.664962   -0.000000   -0.000000    0.000000
[...]
   19.747677    0.646974    0.646974    0.646974    0.000000    0.000000   -0.000000
   19.767725    0.647743    0.647743    0.647743    0.000000    0.000000   -0.000000
   19.787774    0.648509    0.648509    0.648509    0.000000    0.000000   -0.000000
   19.807822    0.649272    0.649272    0.649272    0.000000    0.000000   -0.000000
   19.827871    0.650033    0.650033    0.650033    0.000000    0.000000   -0.000000
   19.847919    0.650792    0.650792    0.650792    0.000000    0.000000   -0.000000
   19.867967    0.651547    0.651547    0.651547    0.000000    0.000000   -0.000000
   19.888016    0.652301    0.652301    0.652301    0.000000    0.000000   -0.000000
   19.908064    0.653051    0.653051    0.653051    0.000000    0.000000   -0.000000
   19.928113    0.653799    0.653799    0.653799    0.000000    0.000000   -0.000000
   19.948161    0.654545    0.654545    0.654545    0.000000    0.000000   -0.000000
   19.968209    0.655288    0.655288    0.655288    0.000000    0.000000   -0.000000
   19.988258    0.656028    0.656028    0.656028    0.000000    0.000000   -0.000000
   20.008306    0.656766    0.656766    0.656766    0.000000    0.000000   -0.000000
   20.028355    0.657502    0.657502    0.657502    0.000000    0.000000   -0.000000

 The outermost node in the dielectric function lies at epsilon=  12.1

 BZINTS: Fermi energy:    2.319480;  256.000000 electrons
         Band energy:-0.721288E+03;  BLOECHL correction:    0.000000